
19488 atoms

2 atom types

-64.275352 64.286370 xlo xhi
-64.282320 64.299371 ylo yhi
0.000000 200.696777 zlo zhi

Masses

1 28.085500
2 15.999400

Atoms

1 1 1 0.0 23.775291 34.089066 180.636578
2 1 1 0.0 25.094694 35.163641 183.011099
3 1 1 0.0 30.828304 28.888795 183.983840
4 1 1 0.0 28.844661 32.908454 182.917593
5 1 2 0.0 21.725720 34.753661 180.116070
6 1 2 0.0 28.312674 34.076078 181.059638
7 1 2 0.0 24.881321 32.252404 181.925993
8 1 2 0.0 29.528714 31.004884 183.093806
9 1 2 0.0 30.244976 32.678469 184.107646
10 1 2 0.0 24.391749 34.219612 179.031778
11 1 2 0.0 27.168405 33.780767 183.472078
12 1 2 0.0 24.063949 35.117225 181.472535
13 1 1 0.0 23.965126 29.418148 180.301505
14 1 1 0.0 25.269992 30.452247 182.455445
15 1 1 0.0 30.262118 24.339679 183.663403
16 1 1 0.0 28.782166 28.280819 182.357565
17 1 2 0.0 22.053763 30.059869 179.815836
18 1 2 0.0 28.478502 29.481624 180.454121
19 1 2 0.0 24.793325 27.576252 181.683257
20 1 2 0.0 29.235333 26.410992 182.678575
21 1 2 0.0 30.123342 28.045110 183.441703
22 1 2 0.0 24.659749 29.605002 178.696228
23 1 2 0.0 27.163700 29.100822 182.922291
24 1 2 0.0 24.322620 30.429918 181.003888
25 1 1 0.0 23.668462 24.765617 180.412005
26 1 1 0.0 24.960061 25.785592 182.345767
27 1 1 0.0 29.178308 19.895637 183.826371
28 1 1 0.0 28.197528 23.730021 182.280563
29 1 2 0.0 21.912142 25.366078 179.945451
30 1 2 0.0 28.101426 24.946214 180.348414
31 1 2 0.0 24.225287 22.936437 181.881124
32 1 2 0.0 28.423382 21.902116 182.744288
33 1 2 0.0 29.473100 23.510064 183.267853
34 1 2 0.0 24.416146 25.001335 178.829019
35 1 2 0.0 26.660122 24.485955 182.832954
36 1 2 0.0 24.094341 25.769013 180.981563
37 1 1 0.0 22.877329 20.131775 180.975380
38 1 1 0.0 24.172787 21.162949 182.674819
39 1 1 0.0 27.565315 15.559017 184.483538
40 1 1 0.0 27.096236 19.255252 182.681508
41 1 2 0.0 21.291488 20.672286 180.513490
42 1 2 0.0 27.189027 20.469024 180.735537
43 1 2 0.0 23.162872 18.334046 182.532753
44 1 2 0.0 27.088188 17.479020 183.295278
45 1 2 0.0 28.306628 19.071031 183.574572
46 1 2 0.0 23.651345 20.408818 179.438930
47 1 2 0.0 25.664059 19.935335 183.198171
48 1 2 0.0 23.380718 21.134423 181.404091
49 1 1 0.0 19.911248 34.426584 184.182192
50 1 1 0.0 21.324981 35.774907 186.498029
51 1 1 0.0 27.062174 29.855226 187.537763
52 1 1 0.0 25.102876 33.739874 186.416464
53 1 2 0.0 17.846148 34.928797 183.666753
54 1 2 0.0 24.552158 34.785804 184.551412
55 1 2 0.0 21.010894 32.704647 185.489442
56 1 2 0.0 25.755028 31.856036 186.628109
57 1 2 0.0 26.573951 33.681430 187.578662
58 1 2 0.0 20.519140 34.500913 182.580783
59 1 2 0.0 23.417057 34.538466 186.966264
60 1 2 0.0 20.244015 35.559998 184.985448
61 1 1 0.0 20.032232 29.605209 183.904887
62 1 1 0.0 21.380660 30.923948 186.039661
63 1 1 0.0 26.407652 25.150280 187.268185
64 1 1 0.0 24.918586 28.961223 185.946597
65 1 2 0.0 18.115612 30.088762 183.420132
66 1 2 0.0 24.596563 30.029247 184.040333
67 1 2 0.0 20.865471 27.881259 185.288943
68 1 2 0.0 25.362734 27.107720 186.279347
69 1 2 0.0 26.307226 28.903129 187.019016
70 1 2 0.0 20.723560 29.724392 182.300241
71 1 2 0.0 23.291319 29.716243 186.509475
72 1 2 0.0 20.405777 30.725969 184.598093
73 1 1 0.0 19.750592 24.799050 183.996337
74 1 1 0.0 21.036069 26.109894 185.949187
75 1 1 0.0 25.317662 20.533731 187.405287
76 1 1 0.0 24.296214 24.247039 185.881992
77 1 2 0.0 17.999280 25.248728 183.526602
78 1 2 0.0 24.182736 25.322526 183.951112
79 1 2 0.0 20.323536 23.087887 185.452381
80 1 2 0.0 24.534882 22.430810 186.334541
81 1 2 0.0 25.596268 24.207450 186.872916
82 1 2 0.0 20.500245 24.957021 182.411263
83 1 2 0.0 22.751094 24.948090 186.435249
84 1 2 0.0 20.165058 25.913762 184.579641
85 1 1 0.0 19.059731 20.008358 184.462584
86 1 1 0.0 20.297710 21.332146 186.220626
87 1 1 0.0 23.782482 16.007554 187.958148
88 1 1 0.0 23.240365 19.596644 186.218388
89 1 2 0.0 17.489456 20.408693 183.993206
90 1 2 0.0 23.317076 20.664945 184.277858
91 1 2 0.0 19.373248 18.325426 185.990623
92 1 2 0.0 23.267548 17.825950 186.797330
93 1 2 0.0 24.451480 19.592456 187.130676
94 1 2 0.0 19.841175 20.198972 182.921189
95 1 2 0.0 21.801688 20.233316 186.738689
96 1 2 0.0 19.523183 21.123305 184.928875
97 1 1 0.0 16.045676 34.723675 187.727807
98 1 1 0.0 17.550107 36.330209 189.984958
99 1 1 0.0 23.288219 30.783103 191.091685
100 1 1 0.0 21.352970 34.516102 189.915336
101 1 2 0.0 13.966575 35.065845 187.217436
102 1 2 0.0 20.785293 35.437156 188.043186
103 1 2 0.0 17.137914 33.123162 189.052892
104 1 2 0.0 21.973918 32.661908 190.162412
105 1 2 0.0 22.891438 34.622619 191.049678
106 1 2 0.0 16.645668 34.741850 186.129789
107 1 2 0.0 19.658539 35.241198 190.460450
108 1 2 0.0 16.421375 35.952849 188.498360
109 1 1 0.0 16.099032 29.784158 187.508269
110 1 1 0.0 17.489116 31.371645 189.623878
111 1 1 0.0 22.552094 25.955503 190.872968
112 1 1 0.0 21.051771 29.619642 189.535629
113 1 2 0.0 14.177461 30.111372 187.024428
114 1 2 0.0 20.711975 30.552524 187.626544
115 1 2 0.0 16.937495 28.184641 188.894630
116 1 2 0.0 21.488161 27.792402 189.880120
117 1 2 0.0 22.485789 29.732544 190.596329
118 1 2 0.0 16.787218 29.836626 185.904254
119 1 2 0.0 19.415992 30.309077 190.096659
120 1 2 0.0 16.487974 31.004292 188.192298
121 1 1 0.0 15.833637 24.856688 187.580668
122 1 1 0.0 17.112810 26.442155 189.552606
123 1 1 0.0 21.462659 21.199623 190.984203
124 1 1 0.0 20.396551 24.775277 189.483420
125 1 2 0.0 14.086418 25.156898 187.107752
126 1 2 0.0 20.265098 25.708518 187.553810
127 1 2 0.0 16.424092 23.269812 189.023637
128 1 2 0.0 20.649856 22.980694 189.924794
129 1 2 0.0 21.720284 24.909397 190.477979
130 1 2 0.0 16.584902 24.938757 185.993507
131 1 2 0.0 18.843343 25.420018 190.037545
132 1 2 0.0 16.236559 26.072977 188.177719
133 1 1 0.0 15.244269 19.941462 187.949788
134 1 1 0.0 16.426313 21.541264 189.766433
135 1 1 0.0 20.012027 16.517064 191.432758
136 1 1 0.0 19.391032 19.982462 189.755267
137 1 2 0.0 13.687425 20.202425 187.472921
138 1 2 0.0 19.449879 20.904572 187.820180
139 1 2 0.0 15.588361 18.379383 189.448492
140 1 2 0.0 19.455829 18.227303 190.299382
141 1 2 0.0 20.603349 20.151611 190.686781
142 1 2 0.0 16.032273 20.048382 186.403449
143 1 2 0.0 17.944818 20.573470 190.279207
144 1 2 0.0 15.668179 21.158848 188.453660
145 1 1 0.0 12.178687 34.983251 191.273421
146 1 1 0.0 13.770437 36.833480 193.471887
147 1 1 0.0 19.507080 31.675595 194.645608
148 1 1 0.0 17.595594 35.241573 193.414208
149 1 2 0.0 10.087003 35.167401 190.768119
150 1 2 0.0 17.012617 36.035069 191.534960
151 1 2 0.0 13.262563 33.510345 192.616341
152 1 2 0.0 18.185987 33.426171 193.696715
153 1 2 0.0 19.198371 35.507066 194.520693
154 1 2 0.0 12.771400 34.945574 189.678794
155 1 2 0.0 15.893383 35.893044 193.954636
156 1 2 0.0 12.596220 36.299339 192.011272
157 1 1 0.0 12.165548 29.955580 191.111650
158 1 1 0.0 13.595514 31.797028 193.208095
159 1 1 0.0 18.695534 26.755791 194.477750
160 1 1 0.0 17.181980 30.257840 193.124661
161 1 2 0.0 10.239309 30.128126 190.628724
162 1 2 0.0 16.824964 31.053511 191.212756
163 1 2 0.0 13.009403 28.486512 192.500317
164 1 2 0.0 17.611772 28.466016 193.480892
165 1 2 0.0 18.659465 30.535683 194.173642
166 1 2 0.0 12.850734 29.942261 189.508268
167 1 2 0.0 15.537937 30.881000 193.683843
168 1 2 0.0 12.569277 31.266152 191.786504
169 1 1 0.0 11.917531 24.936787 191.164999
170 1 1 0.0 13.190233 26.781814 193.156026
171 1 1 0.0 17.612836 21.891029 194.563119
172 1 1 0.0 16.498406 25.313835 193.084849
173 1 2 0.0 10.173556 25.088851 190.688903
174 1 2 0.0 16.348425 26.103372 191.156507
175 1 2 0.0 12.526791 23.480049 192.594894
176 1 2 0.0 16.768023 23.550048 193.515047
177 1 2 0.0 17.845079 25.615536 194.083042
178 1 2 0.0 12.670073 24.944509 189.575751
179 1 2 0.0 14.936774 25.901011 193.639840
180 1 2 0.0 12.308789 26.245627 191.775796
181 1 1 0.0 11.430789 19.927016 191.436992
182 1 1 0.0 12.558337 21.787496 193.312241
183 1 1 0.0 16.252932 17.082538 194.907368
184 1 1 0.0 15.547711 20.409138 193.292147
185 1 2 0.0 9.885394 20.049575 190.952637
186 1 2 0.0 15.587033 21.184212 191.362501
187 1 2 0.0 11.807874 18.491473 192.906362
188 1 2 0.0 15.652310 18.678666 193.801434
189 1 2 0.0 16.761663 20.745424 194.242886
190 1 2 0.0 12.224539 19.952424 189.885708
191 1 2 0.0 14.093042 20.952665 193.819725
192 1 2 0.0 11.815524 21.237723 191.978445
193 1 1 0.0 8.310355 35.207315 194.819035
194 1 1 0.0 9.986218 37.287420 196.958817
195 1 1 0.0 15.719207 32.534912 198.199530
196 1 1 0.0 13.831203 35.919373 196.913080
197 1 2 0.0 6.207430 35.235237 194.318802
198 1 2 0.0 13.234503 36.582992 195.026733
199 1 2 0.0 9.384964 33.867840 196.179790
200 1 2 0.0 14.391653 34.151384 197.231018
201 1 2 0.0 15.495404 36.338280 197.991709
202 1 2 0.0 8.896382 35.114273 193.227799
203 1 2 0.0 12.121957 36.496824 197.448822
204 1 2 0.0 8.768686 36.601916 195.524184
205 1 1 0.0 8.231794 30.119878 194.715032
206 1 1 0.0 9.699961 32.201252 196.792311
207 1 1 0.0 14.838034 27.551451 198.082533
208 1 1 0.0 13.309395 30.877050 196.713693
209 1 2 0.0 6.301158 30.139317 194.233020
210 1 2 0.0 12.935686 31.533649 194.798967
211 1 2 0.0 9.081204 28.786953 196.106003
212 1 2 0.0 13.733680 29.129240 197.081665
213 1 2 0.0 14.828557 31.314172 197.750956
214 1 2 0.0 8.914118 30.041686 193.112281
215 1 2 0.0 11.657305 31.433173 197.271027
216 1 2 0.0 8.649736 31.512418 195.380709
217 1 1 0.0 8.002229 25.038147 194.749330
218 1 1 0.0 9.268303 27.128490 196.759446
219 1 1 0.0 13.767868 22.606354 198.142035
220 1 1 0.0 12.601688 25.862084 196.686278
221 1 2 0.0 6.260694 25.043397 194.270054
222 1 2 0.0 12.432653 26.506515 194.759205
223 1 2 0.0 8.631521 23.717111 196.166151
224 1 2 0.0 12.889185 24.137676 197.105301
225 1 2 0.0 13.970606 26.325606 197.688105
226 1 2 0.0 8.755727 24.972866 193.157996
227 1 2 0.0 11.031323 26.390567 197.242136
228 1 2 0.0 8.381708 26.431002 195.373874
229 1 1 0.0 7.619185 19.962218 194.924196
230 1 1 0.0 8.693607 22.068916 196.858048
231 1 1 0.0 12.504487 17.700478 198.381979
232 1 1 0.0 11.710037 20.874186 196.829026
233 1 2 0.0 6.083362 19.947477 194.432353
234 1 2 0.0 11.728258 21.501281 194.904822
235 1 2 0.0 8.031558 18.658646 196.364232
236 1 2 0.0 11.856485 19.176966 197.303485
237 1 2 0.0 12.926025 21.371751 197.798990
238 1 2 0.0 8.417905 19.907886 193.367967
239 1 2 0.0 10.246076 21.368738 197.360243
240 1 2 0.0 7.965094 21.357643 195.503230
241 1 1 0.0 4.440730 35.397163 198.364650
242 1 1 0.0 6.197609 37.693754 0.445746
243 1 1 0.0 11.924902 33.362542 1.753453
244 1 1 0.0 10.060101 36.551566 0.411951
245 1 2 0.0 2.327858 35.270472 197.869486
246 1 2 0.0 9.451207 37.083261 198.518507
247 1 2 0.0 5.505198 34.196703 199.743239
248 1 2 0.0 10.591199 34.839260 0.765321
249 1 2 0.0 11.782973 37.118612 1.462725
250 1 2 0.0 5.020646 35.249396 196.776804
251 1 2 0.0 8.344500 37.054378 0.943008
252 1 2 0.0 4.938855 36.862155 199.037096
253 1 1 0.0 4.297780 30.277310 198.318414
254 1 1 0.0 5.802526 32.585058 0.376528
255 1 1 0.0 10.979638 28.342691 1.687316
256 1 1 0.0 9.434137 31.478092 0.302724
257 1 2 0.0 2.363007 30.145130 197.837316
258 1 2 0.0 9.044245 31.993910 198.385178
259 1 2 0.0 5.152900 29.086013 199.711690
260 1 2 0.0 9.853961 29.782533 0.682437
261 1 2 0.0 10.993266 32.069098 1.328269
262 1 2 0.0 4.977375 30.135157 196.716294
263 1 2 0.0 7.774196 31.966350 0.858211
264 1 2 0.0 4.729379 31.743649 198.974914
265 1 1 0.0 4.087700 25.159994 198.333662
266 1 1 0.0 5.346998 27.481935 0.362866
267 1 1 0.0 9.927538 23.344527 1.720952
268 1 1 0.0 8.706334 26.419604 0.287706
269 1 2 0.0 2.347832 25.019788 197.851204
270 1 2 0.0 8.517740 26.917560 198.361903
271 1 2 0.0 4.738209 23.980045 199.737407
272 1 2 0.0 9.013211 24.742776 0.695554
273 1 2 0.0 10.096831 27.039435 1.293168
274 1 2 0.0 4.841844 25.022892 196.740240
275 1 2 0.0 7.126946 26.888359 0.844431
276 1 2 0.0 4.455293 26.628646 198.971952
277 1 1 0.0 3.809390 20.045257 198.411400
278 1 1 0.0 4.832007 22.384294 0.403855
279 1 1 0.0 8.766216 18.368535 1.856589
280 1 1 0.0 7.877765 21.375945 0.365906
281 1 2 0.0 2.281331 19.894446 197.912068
282 1 2 0.0 7.873363 21.854030 198.447144
283 1 2 0.0 4.259262 18.878942 199.822102
284 1 2 0.0 8.068017 19.720141 0.805537
285 1 2 0.0 9.096167 22.029156 1.355095
286 1 2 0.0 4.612326 19.912638 196.850226
287 1 2 0.0 6.403737 21.820277 0.900762
288 1 2 0.0 4.116809 21.517135 199.028014
289 1 1 0.0 0.569838 35.553492 1.910264
290 1 1 0.0 2.404694 38.053385 3.932675
291 1 1 0.0 8.124346 34.159380 5.307375
292 1 1 0.0 6.282468 37.139379 3.910823
293 1 2 0.0 -1.551715 35.273666 1.420169
294 1 2 0.0 5.662885 37.537309 2.010281
295 1 2 0.0 1.623307 34.497492 3.306688
296 1 2 0.0 6.784791 35.490824 4.299624
297 1 2 0.0 8.061342 37.849474 4.933740
298 1 2 0.0 1.144211 35.351788 0.325809
299 1 2 0.0 4.561147 37.566729 4.437194
300 1 2 0.0 1.106774 37.080895 2.550008
301 1 1 0.0 0.363513 30.428017 1.921796
302 1 1 0.0 1.903243 32.948833 3.960745
303 1 1 0.0 7.120369 29.129636 5.292098
304 1 1 0.0 5.556277 32.061455 3.891756
305 1 2 0.0 -1.575145 30.145657 1.441612
306 1 2 0.0 5.150708 32.434893 1.971390
307 1 2 0.0 1.224493 29.383719 3.317377
308 1 2 0.0 5.972657 30.426165 4.283210
309 1 2 0.0 7.153715 32.801117 4.905582
310 1 2 0.0 1.040507 30.222826 0.320307
311 1 2 0.0 3.888663 32.480952 4.445395
312 1 2 0.0 0.808223 31.960144 2.569120
313 1 1 0.0 0.173931 25.301911 1.917993
314 1 1 0.0 1.426304 27.842021 3.966285
315 1 1 0.0 6.091714 24.104902 5.299868
316 1 1 0.0 4.812308 26.986147 3.889135
317 1 2 0.0 -1.565030 25.017648 1.432355
318 1 2 0.0 4.603661 27.336270 1.964600
319 1 2 0.0 0.846817 24.268346 3.308664
320 1 2 0.0 5.140023 25.364867 4.285807
321 1 2 0.0 6.223736 27.756917 4.898231
322 1 2 0.0 0.928414 25.094042 0.322484
323 1 2 0.0 3.223620 27.394204 4.446727
324 1 2 0.0 0.529529 26.838316 2.570030
325 1 1 0.0 0.001366 20.175160 1.898604
326 1 1 0.0 0.973479 22.732986 3.949663
327 1 1 0.0 5.037830 19.085290 5.331199
328 1 1 0.0 4.050750 21.913428 3.902785
329 1 2 0.0 -1.520701 19.889639 1.391784
330 1 2 0.0 4.022232 22.241387 1.989465
331 1 2 0.0 0.490910 19.151325 3.279971
332 1 2 0.0 4.286705 20.306961 4.307589
333 1 2 0.0 5.271929 22.716776 4.911200
334 1 2 0.0 0.807774 19.965442 0.332486
335 1 2 0.0 2.565922 22.306498 4.441280
336 1 2 0.0 0.270628 21.715415 2.552799
337 1 1 0.0 -3.302314 35.676457 5.455878
338 1 1 0.0 -1.392512 38.366468 7.419604
339 1 1 0.0 4.317618 34.925812 8.861298
340 1 1 0.0 2.498377 37.683306 7.409695
341 1 2 0.0 -5.431287 35.244869 4.970852
342 1 2 0.0 1.869607 37.945795 5.502055
343 1 2 0.0 -2.260701 34.770317 6.870138
344 1 2 0.0 2.972501 36.106501 7.833927
345 1 2 0.0 4.330620 38.531459 8.404756
346 1 2 0.0 -2.732919 35.421756 3.874814
347 1 2 0.0 0.771934 38.034167 7.931380
348 1 2 0.0 -2.727547 37.258307 6.062920
349 1 1 0.0 -3.571007 30.572031 5.525177
350 1 1 0.0 -1.997880 33.292644 7.544962
351 1 1 0.0 3.260240 29.912340 8.896881
352 1 1 0.0 1.675844 32.627336 7.480788
353 1 2 0.0 -5.513296 30.140906 5.045908
354 1 2 0.0 1.255104 32.856874 5.557601
355 1 2 0.0 -2.704015 29.680078 6.923063
356 1 2 0.0 2.089788 31.060251 7.883982
357 1 2 0.0 3.309954 33.510502 8.482895
358 1 2 0.0 -2.896484 30.304745 3.924320
359 1 2 0.0 0.000722 32.977098 8.032579
360 1 2 0.0 -3.113729 32.161962 6.163325
361 1 1 0.0 -3.739084 25.463802 5.502324
362 1 1 0.0 -2.493779 28.208727 7.569705
363 1 1 0.0 2.260341 24.887200 8.878784
364 1 1 0.0 0.919595 27.561613 7.490563
365 1 2 0.0 -5.477892 25.036943 5.013505
366 1 2 0.0 0.690404 27.762535 5.567298
367 1 2 0.0 -3.042662 24.581915 6.879921
368 1 2 0.0 1.269588 26.003753 7.876061
369 1 2 0.0 2.351313 28.478009 8.503294
370 1 2 0.0 -2.984569 25.186119 3.904729
371 1 2 0.0 -0.678663 27.908051 8.049023
372 1 2 0.0 -3.395585 27.059962 6.168108
373 1 1 0.0 -3.804896 20.351707 5.385808
374 1 1 0.0 -2.881987 23.114881 7.495470
375 1 1 0.0 1.319205 19.850132 8.805809
376 1 1 0.0 0.228934 22.486238 7.439665
377 1 2 0.0 -5.322732 19.932979 4.871499
378 1 2 0.0 0.174811 22.662857 5.531786
379 1 2 0.0 -3.273515 19.475593 6.737841
380 1 2 0.0 0.512463 20.936914 7.809640
381 1 2 0.0 1.453243 23.434251 8.467305
382 1 2 0.0 -2.995759 20.065848 3.814745
383 1 2 0.0 -1.267397 22.827178 7.981798
384 1 2 0.0 -3.573459 21.952323 6.077584
385 1 1 0.0 -7.175742 35.765692 9.001493
386 1 1 0.0 -5.194064 38.632421 10.906534
387 1 1 0.0 0.504699 35.661743 12.415220
388 1 1 0.0 -1.292202 38.183147 10.908567
389 1 2 0.0 -9.310860 35.183626 8.521535
390 1 2 0.0 -1.928633 38.308658 8.993829
391 1 2 0.0 -6.146851 35.014844 10.433587
392 1 2 0.0 -0.845697 36.686148 11.368230
393 1 2 0.0 0.590775 39.164385 11.875772
394 1 2 0.0 -6.610746 35.459095 7.423819
395 1 2 0.0 -3.023191 38.456276 11.425566
396 1 2 0.0 -6.564135 37.393911 9.575832
397 1 1 0.0 -7.505784 30.709277 9.128559
398 1 1 0.0 -5.900867 33.616242 11.129178
399 1 1 0.0 -0.600753 30.690790 12.501663
400 1 1 0.0 -2.207173 33.175656 11.069820
401 1 2 0.0 -9.451447 30.130802 8.650204
402 1 2 0.0 -2.642569 33.259825 9.143813
403 1 2 0.0 -6.632627 29.975072 10.528750
404 1 2 0.0 -1.794652 31.684752 11.484755
405 1 2 0.0 -0.538032 34.197169 12.060208
406 1 2 0.0 -6.833598 30.380878 7.528333
407 1 2 0.0 -3.889648 33.454618 11.619763
408 1 2 0.0 -7.036485 32.348935 9.757530
409 1 1 0.0 -7.651336 25.645889 9.086655
410 1 1 0.0 -6.413243 28.582135 11.173125
411 1 1 0.0 -1.566567 25.691491 12.457700
412 1 1 0.0 -2.971799 28.146041 11.091992
413 1 2 0.0 -9.390754 25.077979 8.594656
414 1 2 0.0 -3.222030 28.196366 9.169996
415 1 2 0.0 -6.930205 24.921054 10.451178
416 1 2 0.0 -2.598083 26.659498 11.466314
417 1 2 0.0 -1.520437 29.202724 12.108357
418 1 2 0.0 -6.897101 25.299253 7.486973
419 1 2 0.0 -4.579892 28.429973 11.651318
420 1 2 0.0 -7.320042 27.293723 9.766186
421 1 1 0.0 -7.609374 20.575414 8.873012
422 1 1 0.0 -6.734354 23.530394 11.041278
423 1 1 0.0 -2.389627 20.663213 12.280419
424 1 1 0.0 -3.587661 23.094534 10.976544
425 1 2 0.0 -9.124763 20.025156 8.351215
426 1 2 0.0 -3.668895 23.118487 9.074108
427 1 2 0.0 -7.033966 19.852364 10.195711
428 1 2 0.0 -3.254678 21.610173 11.311692
429 1 2 0.0 -2.359870 24.181689 12.023409
430 1 2 0.0 -6.798268 20.214155 7.297004
431 1 2 0.0 -5.096180 23.382635 11.522316
432 1 2 0.0 -7.415427 22.228308 9.602369
433 1 1 0.0 -11.050479 35.820269 12.547107
434 1 1 0.0 -9.000088 38.849881 14.393463
435 1 1 0.0 -3.314531 36.366590 15.969143
436 1 1 0.0 -5.089401 38.637994 14.407438
437 1 2 0.0 -13.190432 35.088935 12.072218
438 1 2 0.0 -5.731921 38.625106 12.485603
439 1 2 0.0 -10.035204 35.230271 13.997036
440 1 2 0.0 -4.669920 37.229044 14.902533
441 1 2 0.0 -3.158375 39.747285 15.346787
442 1 2 0.0 -10.489287 35.463073 10.972825
443 1 2 0.0 -6.824382 38.831897 14.919752
444 1 2 0.0 -10.403053 37.486534 13.088744
445 1 1 0.0 -11.440823 30.839569 12.731941
446 1 1 0.0 -9.805771 33.919040 14.713395
447 1 1 0.0 -4.462626 31.464904 16.106446
448 1 1 0.0 -6.092827 33.706052 14.658852
449 1 2 0.0 -13.389599 30.115181 12.254500
450 1 2 0.0 -6.542348 33.643417 12.730024
451 1 2 0.0 -10.561345 30.268663 14.134437
452 1 2 0.0 -5.680695 32.299476 15.085527
453 1 2 0.0 -4.390326 34.860671 15.637521
454 1 2 0.0 -10.770839 30.451097 11.132346
455 1 2 0.0 -7.782510 33.913035 15.206947
456 1 2 0.0 -10.960069 32.520644 13.351736
457 1 1 0.0 -11.562803 25.848726 12.670986
458 1 1 0.0 -10.332073 28.962440 14.776545
459 1 1 0.0 -5.388926 26.518194 16.036616
460 1 1 0.0 -6.861847 28.739616 14.693421
461 1 2 0.0 -13.303616 25.141427 12.175807
462 1 2 0.0 -7.133628 28.637894 12.772694
463 1 2 0.0 -10.815758 25.286487 14.022434
464 1 2 0.0 -6.462934 27.332442 15.056567
465 1 2 0.0 -5.391500 29.931135 15.713420
466 1 2 0.0 -10.809173 25.433917 11.069217
467 1 2 0.0 -8.480041 28.960177 15.253614
468 1 2 0.0 -11.243824 27.539938 13.364263
469 1 1 0.0 -11.412022 20.847573 12.360216
470 1 1 0.0 -10.583532 23.980499 14.587085
471 1 1 0.0 -6.088479 21.525456 15.755029
472 1 1 0.0 -7.398925 23.739048 14.513424
473 1 2 0.0 -12.926795 20.167673 11.830931
474 1 2 0.0 -7.508821 23.608870 12.616429
475 1 2 0.0 -10.790329 20.283126 13.653581
476 1 2 0.0 -7.014578 22.327604 14.813744
477 1 2 0.0 -6.167300 24.959683 15.579514
478 1 2 0.0 -10.599728 20.411438 10.779263
479 1 2 0.0 -8.920310 23.973760 15.062834
480 1 2 0.0 -11.255217 22.544466 13.127153
481 1 1 0.0 -14.926585 35.838630 16.092721
482 1 1 0.0 -12.810791 39.016584 17.880392
483 1 1 0.0 -7.140298 37.039232 19.523065
484 1 1 0.0 -8.893471 39.046156 17.906310
485 1 2 0.0 -17.070005 34.959165 15.622902
486 1 2 0.0 -9.540428 38.893557 15.977377
487 1 2 0.0 -13.925861 35.415260 17.560485
488 1 2 0.0 -8.500390 37.733829 18.436836
489 1 2 0.0 -6.917170 40.278326 18.817803
490 1 2 0.0 -14.368570 35.432370 14.521830
491 1 2 0.0 -10.631897 39.159032 18.413939
492 1 2 0.0 -14.244408 37.534215 16.601656
493 1 1 0.0 -15.376136 30.962595 16.335323
494 1 1 0.0 -13.712683 34.200069 18.297612
495 1 1 0.0 -8.325411 32.234525 19.711228
496 1 1 0.0 -9.981219 34.217851 18.247884
497 1 2 0.0 -17.327750 30.093772 15.858796
498 1 2 0.0 -10.444304 34.006990 16.316236
499 1 2 0.0 -14.490174 30.560788 17.740124
500 1 2 0.0 -9.568400 32.904062 18.686300
501 1 2 0.0 -8.247087 35.500158 19.214834
502 1 2 0.0 -14.708212 30.515166 14.736359
503 1 2 0.0 -11.677972 34.351528 18.794131
504 1 2 0.0 -14.884519 32.676394 16.945941
505 1 1 0.0 -15.473451 26.073247 16.255318
506 1 1 0.0 -14.250236 29.349962 18.379964
507 1 1 0.0 -9.206572 27.368118 19.615532
508 1 1 0.0 -10.750499 29.342682 18.294849
509 1 2 0.0 -17.216478 25.228379 15.756957
510 1 2 0.0 -11.044360 29.087380 16.375391
511 1 2 0.0 -14.699229 25.679423 17.593691
512 1 2 0.0 -10.324861 28.023219 18.646820
513 1 2 0.0 -9.261850 30.663375 19.318483
514 1 2 0.0 -14.720766 25.590965 14.651461
515 1 2 0.0 -12.379062 29.499020 18.855909
516 1 2 0.0 -15.166900 27.799178 16.962341
517 1 1 0.0 -15.212756 21.170368 15.847420
518 1 1 0.0 -14.429371 24.466808 18.132892
519 1 1 0.0 -9.776993 22.438633 19.229639
520 1 1 0.0 -11.204660 24.421141 18.050304
521 1 2 0.0 -16.728826 20.362986 15.310646
522 1 2 0.0 -11.344839 24.135189 16.158750
523 1 2 0.0 -14.542418 20.770364 17.111451
524 1 2 0.0 -10.766969 23.090840 18.315795
525 1 2 0.0 -9.968839 25.769352 19.135619
526 1 2 0.0 -14.400100 20.659635 14.261523
527 1 2 0.0 -12.739587 24.602084 18.603352
528 1 2 0.0 -15.092730 22.902630 16.651938
529 1 1 0.0 -18.804149 35.818436 19.638336
530 1 1 0.0 -16.626485 39.129160 21.367322
531 1 1 0.0 -10.972958 37.677914 23.076988
532 1 1 0.0 -12.704797 39.405008 21.405182
533 1 2 0.0 -20.949577 34.791905 19.173585
534 1 2 0.0 -13.354429 39.111500 19.469151
535 1 2 0.0 -17.818974 35.567811 21.123934
536 1 2 0.0 -12.337455 38.198389 21.971139
537 1 2 0.0 -10.686143 40.754645 22.288819
538 1 2 0.0 -18.248639 35.364959 18.070835
539 1 2 0.0 -14.446131 39.434664 21.908125
540 1 2 0.0 -18.088359 37.534018 20.114568
541 1 1 0.0 -19.311742 31.077885 19.938705
542 1 1 0.0 -17.621735 34.457884 21.881828
543 1 1 0.0 -12.189158 32.999410 23.316011
544 1 1 0.0 -13.872500 34.710008 21.836916
545 1 2 0.0 -21.265901 30.066179 19.463092
546 1 2 0.0 -14.348551 34.349497 19.902447
547 1 2 0.0 -18.419121 30.851348 21.345810
548 1 2 0.0 -13.457859 33.497947 22.287072
549 1 2 0.0 -12.108560 36.114305 22.792147
550 1 2 0.0 -18.645723 30.572726 18.340372
551 1 2 0.0 -15.576194 34.768857 22.381315
552 1 2 0.0 -18.809890 32.815143 20.540146
553 1 1 0.0 -19.383226 26.320851 19.839649
554 1 1 0.0 -18.167690 29.745182 21.983384
555 1 1 0.0 -13.019247 28.242528 23.194449
556 1 1 0.0 -14.637675 29.955773 21.896278
557 1 2 0.0 -21.129340 25.340452 19.338108
558 1 2 0.0 -14.954180 29.545242 19.978089
559 1 2 0.0 -18.580481 26.101670 21.164948
560 1 2 0.0 -14.183703 28.732820 22.237074
561 1 2 0.0 -13.131448 31.399658 22.923546
562 1 2 0.0 -18.631852 25.771702 18.233706
563 1 2 0.0 -16.276887 30.047038 22.458205
564 1 2 0.0 -19.089223 28.072292 20.560419
565 1 1 0.0 -19.011453 21.547065 19.334624
566 1 1 0.0 -18.271651 24.991727 21.678700
567 1 1 0.0 -13.454604 23.405518 22.704250
568 1 1 0.0 -15.004554 25.142926 21.587183
569 1 2 0.0 -20.530858 20.614726 18.790362
570 1 2 0.0 -15.176744 24.699327 19.701071
571 1 2 0.0 -18.289951 21.317785 20.569320
572 1 2 0.0 -14.511433 23.902426 21.817847
573 1 2 0.0 -13.764162 26.612444 22.691724
574 1 2 0.0 -18.199319 20.961722 17.743782
575 1 2 0.0 -16.553709 25.269925 22.143870
576 1 2 0.0 -18.927816 23.305545 20.176723
577 1 1 0.0 -22.683296 35.756331 23.183950
578 1 1 0.0 -20.447614 39.182779 24.854251
579 1 1 0.0 -14.813032 38.280077 26.630911
580 1 1 0.0 -16.523941 39.710735 24.904054
581 1 2 0.0 -24.829150 34.583704 22.724268
582 1 2 0.0 -17.174323 39.275255 22.960925
583 1 2 0.0 -21.714759 35.685059 24.687384
584 1 2 0.0 -16.181620 38.619643 25.505442
585 1 2 0.0 -14.466067 41.172077 25.759835
586 1 2 0.0 -22.129555 35.257907 21.619840
587 1 2 0.0 -18.267650 39.654447 25.402311
588 1 2 0.0 -21.935134 37.481735 23.627480
589 1 1 0.0 -23.247666 31.184766 23.542086
590 1 1 0.0 -21.533119 34.690412 25.466045
591 1 1 0.0 -16.053938 33.759201 26.920794
592 1 1 0.0 -17.766896 35.181002 25.425948
593 1 2 0.0 -25.204052 30.031831 23.067388
594 1 2 0.0 -18.255256 34.669402 23.488658
595 1 2 0.0 -22.348197 31.140207 24.951497
596 1 2 0.0 -17.349207 34.080311 25.887845
597 1 2 0.0 -15.975105 36.701183 26.369460
598 1 2 0.0 -22.583385 30.623258 21.944385
599 1 2 0.0 -19.477410 35.163237 25.968499
600 1 2 0.0 -22.736264 32.935395 24.134352
601 1 1 0.0 -23.292053 26.593549 23.423980
602 1 1 0.0 -22.084371 30.148785 25.586804
603 1 1 0.0 -16.826576 29.143269 26.773365
604 1 1 0.0 -18.523262 30.579664 25.497706
605 1 2 0.0 -25.042202 25.479958 22.919258
606 1 2 0.0 -18.863024 30.012090 23.580787
607 1 2 0.0 -22.459319 26.555816 24.736204
608 1 2 0.0 -18.039222 29.462686 25.827327
609 1 2 0.0 -17.000238 32.140289 26.528609
610 1 2 0.0 -22.542391 25.978024 21.815950
611 1 2 0.0 -20.173414 30.605006 26.060500
612 1 2 0.0 -23.010728 28.360499 24.158497
613 1 1 0.0 -22.807935 21.982357 22.821828
614 1 1 0.0 -22.110053 25.558700 25.224507
615 1 1 0.0 -17.120491 24.430158 26.178860
616 1 1 0.0 -18.798154 25.907475 25.124063
617 1 2 0.0 -24.332889 20.928085 22.270077
618 1 2 0.0 -19.004236 25.304037 23.243393
619 1 2 0.0 -22.032525 21.930706 24.027190
620 1 2 0.0 -18.247364 24.766062 25.319899
621 1 2 0.0 -17.552796 27.491504 26.247828
622 1 2 0.0 -21.997293 21.322006 21.226041
623 1 2 0.0 -20.362242 25.980613 25.684388
624 1 2 0.0 -22.760263 23.757143 23.701508
625 1 1 0.0 -26.564208 35.647538 26.729565
626 1 1 0.0 -24.274814 39.170562 28.341180
627 1 1 0.0 -18.661259 38.842077 30.184833
628 1 1 0.0 -20.351701 39.957905 28.402925
629 1 2 0.0 -28.708722 34.329644 26.274951
630 1 2 0.0 -21.000682 39.379571 26.452699
631 1 2 0.0 -25.613525 35.762923 28.250833
632 1 2 0.0 -20.033604 38.993205 29.039745
633 1 2 0.0 -18.258048 41.524685 29.230850
634 1 2 0.0 -26.011408 35.107039 25.168845
635 1 2 0.0 -22.097262 39.812199 28.896497
636 1 2 0.0 -25.785058 37.371372 27.140392
637 1 1 0.0 -27.183944 31.282281 27.145468
638 1 1 0.0 -25.447106 34.894703 29.050262
639 1 1 0.0 -19.919856 34.513390 30.525576
640 1 1 0.0 -21.664725 35.628670 29.014980
641 1 2 0.0 -29.142204 29.989918 26.671684
642 1 2 0.0 -22.164657 34.964517 27.074870
643 1 2 0.0 -26.277417 31.427167 28.557184
644 1 2 0.0 -21.242635 34.649989 29.488617
645 1 2 0.0 -19.847233 37.258043 29.946773
646 1 2 0.0 -26.521214 30.666021 25.548398
647 1 2 0.0 -23.381951 35.532126 29.555683
648 1 2 0.0 -26.663756 33.035022 27.728557
649 1 1 0.0 -27.199823 26.894200 27.008311
650 1 1 0.0 -26.000189 30.561751 29.190224
651 1 1 0.0 -20.628028 30.072969 30.352281
652 1 1 0.0 -22.407097 31.215460 29.099135
653 1 2 0.0 -28.955064 25.650191 26.500409
654 1 2 0.0 -22.770796 30.488794 27.183484
655 1 2 0.0 -26.335462 27.045549 28.307461
656 1 2 0.0 -21.891083 30.214869 29.417580
657 1 2 0.0 -20.868137 32.885709 30.133672
658 1 2 0.0 -26.452325 26.212624 25.398194
659 1 2 0.0 -24.068499 31.174025 29.662796
660 1 2 0.0 -26.931321 28.665537 27.756575
661 1 1 0.0 -26.601950 22.482924 26.309032
662 1 1 0.0 -25.944125 26.172635 28.770314
663 1 1 0.0 -20.773483 25.518320 29.653470
664 1 1 0.0 -22.584819 26.719158 28.660942
665 1 2 0.0 -28.134920 21.310465 25.749793
666 1 2 0.0 -22.826889 25.953250 26.785714
667 1 2 0.0 -25.769568 22.616701 27.485060
668 1 2 0.0 -21.973897 25.687019 28.821950
669 1 2 0.0 -21.334065 28.410157 29.803933
670 1 2 0.0 -25.793891 21.746615 24.708300
671 1 2 0.0 -24.164566 26.738894 29.224907
672 1 2 0.0 -26.589766 24.263027 27.226292
673 1 1 0.0 30.547580 28.181097 187.533130
674 1 1 0.0 32.067138 28.946917 189.907651
675 1 1 0.0 36.317792 21.586217 190.880392
676 1 1 0.0 35.244633 25.938323 189.814144
677 1 2 0.0 28.688795 29.270752 187.012621
678 1 2 0.0 34.976089 27.193010 187.956189
679 1 2 0.0 31.232923 26.149613 188.822545
680 1 2 0.0 35.503483 23.932207 189.990358
681 1 2 0.0 36.562770 25.412689 191.004198
682 1 2 0.0 31.177688 28.176072 185.928330
683 1 2 0.0 33.795089 27.150587 190.368630
684 1 2 0.0 31.050512 29.123166 188.369087
685 1 1 0.0 29.728867 23.578574 187.198057
686 1 1 0.0 31.225526 24.307989 189.351996
687 1 1 0.0 34.786918 17.265170 190.559954
688 1 1 0.0 34.188795 21.432314 189.254117
689 1 2 0.0 28.000142 24.616179 186.712388
690 1 2 0.0 34.150368 22.670324 187.350673
691 1 2 0.0 30.141750 21.601702 188.579808
692 1 2 0.0 34.229410 19.508786 189.575126
693 1 2 0.0 35.447945 20.913803 190.338255
694 1 2 0.0 30.447418 23.611736 185.592780
695 1 2 0.0 32.784444 22.581068 189.818842
696 1 2 0.0 30.295503 24.489839 187.900439
697 1 1 0.0 28.438982 19.098591 187.308557
698 1 1 0.0 29.919649 19.817064 189.242319
699 1 1 0.0 32.773109 13.158015 190.722923
700 1 1 0.0 32.639538 17.113592 189.177115
701 1 2 0.0 26.852806 20.062570 186.842003
702 1 2 0.0 32.807129 18.322009 187.244966
703 1 2 0.0 28.589569 17.192475 188.777676
704 1 2 0.0 32.467167 15.279870 189.640839
705 1 2 0.0 33.838005 16.624567 190.164404
706 1 2 0.0 29.219858 19.168068 185.725570
707 1 2 0.0 31.300580 18.182349 189.729506
708 1 2 0.0 29.070605 19.986977 187.878115
709 1 1 0.0 26.670206 14.743156 187.871931
710 1 1 0.0 28.157050 15.471736 189.571370
711 1 1 0.0 30.265582 9.269528 191.380090
712 1 1 0.0 30.602051 12.980185 189.578060
713 1 2 0.0 25.237635 15.611939 187.410042
714 1 2 0.0 30.953598 14.145632 187.632089
715 1 2 0.0 26.562615 12.926074 189.429304
716 1 2 0.0 30.212354 11.247211 190.191830
717 1 2 0.0 31.744542 12.540072 190.471123
718 1 2 0.0 27.485683 14.847331 186.335482
719 1 2 0.0 29.349555 13.952244 190.094723
720 1 2 0.0 27.377366 15.614149 188.300642
721 1 1 0.0 26.846432 29.341380 191.078744
722 1 1 0.0 28.516962 30.354269 193.394580
723 1 1 0.0 32.847467 23.339660 194.434314
724 1 1 0.0 31.769060 27.554678 193.313016
725 1 2 0.0 24.937574 30.275786 190.563304
726 1 2 0.0 31.456062 28.694543 191.447963
727 1 2 0.0 27.550203 27.423309 192.385994
728 1 2 0.0 32.000996 25.574690 193.524661
729 1 2 0.0 33.193178 27.181363 194.475214
730 1 2 0.0 27.456090 29.283292 189.477335
731 1 2 0.0 30.294329 28.697000 193.862816
732 1 2 0.0 27.415070 30.376760 191.881999
733 1 1 0.0 25.928134 24.606717 190.801439
734 1 1 0.0 27.528527 25.604753 192.936213
735 1 1 0.0 31.196822 18.885416 194.164737
736 1 1 0.0 30.561810 22.927366 192.843149
737 1 2 0.0 24.160274 25.490983 190.316684
738 1 2 0.0 30.476909 24.039646 190.936884
739 1 2 0.0 26.371295 22.743951 192.185495
740 1 2 0.0 30.597126 21.021719 193.175899
741 1 2 0.0 31.905496 22.572114 193.915568
742 1 2 0.0 26.628920 24.574500 189.196793
743 1 2 0.0 29.134895 24.014548 193.406026
744 1 2 0.0 26.533877 25.620974 191.494645
745 1 1 0.0 24.619897 19.973468 190.892888
746 1 1 0.0 26.157112 20.977326 192.845738
747 1 1 0.0 29.139895 14.611115 194.301839
748 1 1 0.0 28.940578 18.457189 192.778544
749 1 2 0.0 23.006197 20.789113 190.423154
750 1 2 0.0 29.060951 19.531926 190.847664
751 1 2 0.0 24.811596 18.179146 192.348932
752 1 2 0.0 28.783232 16.632116 193.231093
753 1 2 0.0 30.201727 18.139052 193.769467
754 1 2 0.0 25.385983 19.966593 189.307815
755 1 2 0.0 27.582288 19.474005 193.331801
756 1 2 0.0 25.264303 20.973021 191.476193
757 1 1 0.0 22.915330 15.443295 191.359135
758 1 1 0.0 24.408941 16.470005 193.117178
759 1 1 0.0 26.667612 10.520775 194.854700
760 1 1 0.0 26.909717 14.142494 193.114939
761 1 2 0.0 21.467828 16.171833 190.889758
762 1 2 0.0 27.214288 15.169328 191.174410
763 1 2 0.0 22.859737 13.732312 192.887174
764 1 2 0.0 26.555618 12.407355 193.693882
765 1 2 0.0 28.091617 13.878050 194.027228
766 1 2 0.0 23.719482 15.461465 189.817741
767 1 2 0.0 25.641541 15.073554 193.635241
768 1 2 0.0 23.607628 16.432547 191.825427
769 1 1 0.0 23.135101 30.462509 194.624358
770 1 1 0.0 24.949717 31.708075 196.881510
771 1 1 0.0 29.361210 25.057132 197.988237
772 1 1 0.0 28.273691 29.118878 196.811888
773 1 2 0.0 21.178165 31.243624 194.113988
774 1 2 0.0 27.917286 30.140431 194.939737
775 1 2 0.0 23.857740 28.664616 195.949443
776 1 2 0.0 28.481525 27.174548 197.058964
777 1 2 0.0 29.799088 28.892179 197.946229
778 1 2 0.0 23.724972 30.351279 193.026340
779 1 2 0.0 26.774749 30.191274 197.357002
780 1 2 0.0 23.766252 31.582181 195.394911
781 1 1 0.0 22.125359 25.627005 194.404820
782 1 1 0.0 23.824207 26.878551 196.520430
783 1 1 0.0 27.604504 20.500644 197.769519
784 1 1 0.0 26.926940 24.401642 196.432180
785 1 2 0.0 20.319054 26.359649 193.920980
786 1 2 0.0 26.795630 25.385760 194.523096
787 1 2 0.0 22.600370 23.884639 195.791182
788 1 2 0.0 26.960324 22.523312 196.776671
789 1 2 0.0 28.351702 24.203634 197.492881
790 1 2 0.0 22.808734 25.530306 192.800806
791 1 2 0.0 25.477613 25.426603 196.993210
792 1 2 0.0 22.767500 26.735002 195.088850
793 1 1 0.0 20.806909 20.871788 194.477220
794 1 1 0.0 22.397003 22.145204 196.449158
795 1 1 0.0 25.518167 16.090150 197.880755
796 1 1 0.0 25.245643 19.811390 196.379972
797 1 2 0.0 19.165075 21.540581 194.004304
798 1 2 0.0 25.317883 20.751070 194.450361
799 1 2 0.0 21.042428 19.195082 195.920189
800 1 2 0.0 25.107244 18.004309 196.821346
801 1 2 0.0 26.567260 19.657811 197.374530
802 1 2 0.0 21.558252 20.790439 192.890059
803 1 2 0.0 23.867348 20.774950 196.934097
804 1 2 0.0 21.461877 21.973025 195.074270
805 1 1 0.0 19.174691 16.198175 194.846339
806 1 1 0.0 20.673009 17.506470 196.662985
807 1 1 0.0 23.094837 11.828910 198.329310
808 1 1 0.0 23.233319 15.346784 196.651819
809 1 2 0.0 17.710345 16.787712 194.369473
810 1 2 0.0 23.489017 16.234686 194.716731
811 1 2 0.0 19.174938 14.598646 196.345044
812 1 2 0.0 22.919294 13.618730 197.195934
813 1 2 0.0 24.453655 15.251367 197.583333
814 1 2 0.0 19.967257 16.133197 193.300000
815 1 2 0.0 21.947966 16.234868 197.175759
816 1 2 0.0 19.850392 17.295970 195.350212
817 1 1 0.0 19.414321 31.547304 198.169973
818 1 1 0.0 21.366601 33.012097 0.368439
819 1 1 0.0 25.860332 26.741591 1.542159
820 1 1 0.0 24.760115 30.635112 0.310760
821 1 2 0.0 17.411126 32.176799 197.664671
822 1 2 0.0 24.361346 31.535379 198.431511
823 1 2 0.0 20.156225 29.875833 199.512893
824 1 2 0.0 24.946447 28.735236 0.593267
825 1 2 0.0 26.382493 30.549848 1.417245
826 1 2 0.0 19.985077 31.383093 196.575345
827 1 2 0.0 23.237748 31.637277 0.851188
828 1 2 0.0 20.105013 32.742865 198.907823
829 1 1 0.0 18.320688 26.640002 198.008202
830 1 1 0.0 20.113079 28.130997 0.104647
831 1 1 0.0 24.010147 22.111268 1.374302
832 1 1 0.0 23.284817 25.856811 0.021212
833 1 2 0.0 16.476576 27.222598 197.525276
834 1 2 0.0 23.107193 26.710627 198.109307
835 1 2 0.0 18.829009 25.023876 199.396868
836 1 2 0.0 23.319370 24.014486 0.377444
837 1 2 0.0 24.787486 25.810543 1.070194
838 1 2 0.0 18.986992 26.479699 196.404819
839 1 2 0.0 21.813171 26.818823 0.580394
840 1 2 0.0 18.996713 27.833143 198.683055
841 1 1 0.0 16.999578 21.791862 198.061551
842 1 1 0.0 18.639151 23.320160 0.052578
843 1 1 0.0 21.906981 17.592990 1.459671
844 1 1 0.0 21.554409 21.175342 199.981401
845 1 2 0.0 15.329066 22.315273 197.585455
846 1 2 0.0 21.577661 21.978661 198.053059
847 1 2 0.0 17.281438 20.238209 199.491446
848 1 2 0.0 21.438560 19.394832 0.411599
849 1 2 0.0 22.934454 21.180494 0.979593
850 1 2 0.0 17.736186 21.637629 196.472303
851 1 2 0.0 20.155512 22.084495 0.536392
852 1 2 0.0 17.663050 22.985993 198.672348
853 1 1 0.0 15.447263 17.003852 198.333543
854 1 1 0.0 16.948398 18.578445 0.208792
855 1 1 0.0 19.545188 13.189258 1.803920
856 1 1 0.0 19.571575 16.589685 0.188698
857 1 2 0.0 13.964345 17.455760 197.849189
858 1 2 0.0 19.776596 17.338186 198.259053
859 1 2 0.0 15.506933 15.520809 199.802914
860 1 2 0.0 19.301728 14.877186 0.697985
861 1 2 0.0 20.829438 16.657145 1.139437
862 1 2 0.0 16.227918 16.858033 196.782260
863 1 2 0.0 18.267758 17.433216 0.716277
864 1 2 0.0 16.104766 18.201209 198.874997
865 1 1 0.0 15.684596 32.597707 1.715587
866 1 1 0.0 17.768438 34.268920 3.855368
867 1 1 0.0 22.345746 28.395099 5.096082
868 1 1 0.0 21.229441 32.106298 3.809631
869 1 2 0.0 13.636838 33.077043 1.215354
870 1 2 0.0 20.789350 32.882675 1.923285
871 1 2 0.0 16.446134 31.058539 3.076342
872 1 2 0.0 21.396722 30.259163 4.127570
873 1 2 0.0 22.944786 32.157657 4.888261
874 1 2 0.0 16.236920 32.380861 0.124351
875 1 2 0.0 19.684291 33.037687 4.345374
876 1 2 0.0 16.432009 33.861175 2.420735
877 1 1 0.0 14.514222 27.646100 1.611584
878 1 1 0.0 16.395499 29.363200 3.688863
879 1 1 0.0 20.413877 23.717574 4.979085
880 1 1 0.0 19.635882 27.294035 3.610244
881 1 2 0.0 12.632903 28.080114 1.129572
882 1 2 0.0 19.412059 28.015619 1.695519
883 1 2 0.0 15.057234 26.161739 3.002555
884 1 2 0.0 19.674520 25.495880 3.978216
885 1 2 0.0 21.213494 27.394362 4.647507
886 1 2 0.0 15.163785 27.423056 0.008832
887 1 2 0.0 18.141967 28.192307 4.167578
888 1 2 0.0 15.221748 28.916237 2.277261
889 1 1 0.0 13.197603 22.732527 1.645882
890 1 1 0.0 14.883439 24.501829 3.655998
891 1 1 0.0 18.305680 19.118145 5.038587
892 1 1 0.0 17.866651 22.548452 3.582829
893 1 2 0.0 11.497913 23.112032 1.166605
894 1 2 0.0 17.840102 23.214154 1.655757
895 1 2 0.0 13.528199 21.307097 3.062703
896 1 2 0.0 17.776729 20.802557 4.001852
897 1 2 0.0 19.303208 22.706861 4.584656
898 1 2 0.0 13.919451 22.506792 0.054547
899 1 2 0.0 16.446609 23.402162 4.138688
900 1 2 0.0 13.867632 24.011241 2.270426
901 1 1 0.0 11.732340 17.857612 1.820748
902 1 1 0.0 13.234520 19.684088 3.754600
903 1 1 0.0 16.017219 14.598556 5.278530
904 1 1 0.0 15.923595 17.868847 3.725578
905 1 2 0.0 10.229254 18.173373 1.328904
906 1 2 0.0 16.076197 18.477364 1.801374
907 1 2 0.0 11.854842 16.495870 3.260784
908 1 2 0.0 15.701768 16.179825 4.200037
909 1 2 0.0 17.218117 18.093378 4.695542
910 1 2 0.0 12.500706 17.632850 0.264519
911 1 2 0.0 14.600175 18.666545 4.256795
912 1 2 0.0 12.370136 19.146053 2.399781
913 1 1 0.0 11.946252 33.614972 5.261201
914 1 1 0.0 14.155755 35.480193 7.342298
915 1 1 0.0 18.818065 30.019042 8.650004
916 1 1 0.0 17.682408 33.534386 7.308503
917 1 2 0.0 9.855543 33.945447 4.766037
918 1 2 0.0 17.202048 34.184544 5.415059
919 1 2 0.0 12.727770 32.213748 6.639791
920 1 2 0.0 17.832993 31.747942 7.661873
921 1 2 0.0 19.486898 33.717808 8.359276
922 1 2 0.0 12.480845 33.345994 3.673356
923 1 2 0.0 16.115006 34.394247 7.839560
924 1 2 0.0 12.747661 34.938631 5.933648
925 1 1 0.0 10.706027 28.645548 5.214966
926 1 1 0.0 12.671690 30.575866 7.273080
927 1 1 0.0 16.815781 25.319757 8.583867
928 1 1 0.0 15.980431 28.714091 7.199276
929 1 2 0.0 8.788073 28.932377 4.733868
930 1 2 0.0 15.710541 29.301665 5.281730
931 1 2 0.0 11.285061 27.298277 6.608242
932 1 2 0.0 16.025945 26.967923 7.578989
933 1 2 0.0 17.630158 28.956113 8.224820
934 1 2 0.0 11.339174 28.360626 3.612845
935 1 2 0.0 14.464259 29.547772 7.754762
936 1 2 0.0 11.442755 29.984824 5.871466
937 1 1 0.0 9.400787 23.693033 5.230213
938 1 1 0.0 11.129791 25.689976 7.259417
939 1 1 0.0 14.713821 20.664618 8.617503
940 1 1 0.0 14.182219 23.930324 7.184258
941 1 2 0.0 7.671456 23.930124 4.747756
942 1 2 0.0 14.105080 24.457180 5.258454
943 1 2 0.0 9.782433 22.400830 6.633959
944 1 2 0.0 14.121452 22.226729 7.592106
945 1 2 0.0 15.673452 24.236747 8.189719
946 1 2 0.0 10.107827 23.397018 3.636792
947 1 2 0.0 12.740524 24.727641 7.740983
948 1 2 0.0 10.075502 25.048327 5.868504
949 1 1 0.0 8.029466 18.757704 5.307952
950 1 1 0.0 9.530999 20.822223 7.300407
951 1 1 0.0 12.509959 16.054612 8.753140
952 1 1 0.0 12.288783 19.182701 7.262458
953 1 2 0.0 6.504712 18.938906 4.808620
954 1 2 0.0 12.387258 19.650555 5.343695
955 1 2 0.0 8.218098 17.521948 6.718653
956 1 2 0.0 12.118639 17.524710 7.702089
957 1 2 0.0 13.619121 19.558720 8.251647
958 1 2 0.0 8.785121 18.455578 3.746778
959 1 2 0.0 10.944736 19.933517 7.797313
960 1 2 0.0 8.646109 20.129084 5.924566
961 1 1 0.0 8.199466 34.599772 8.806816
962 1 1 0.0 10.528827 36.646780 10.829227
963 1 1 0.0 15.277660 31.614258 12.203927
964 1 1 0.0 14.119456 34.920536 10.807375
965 1 2 0.0 6.067359 34.782560 8.316720
966 1 2 0.0 13.599901 35.442354 8.906833
967 1 2 0.0 9.001296 33.341997 10.203240
968 1 2 0.0 14.255645 33.202539 11.196176
969 1 2 0.0 16.009391 35.231624 11.830292
970 1 2 0.0 8.717049 34.279312 7.222361
971 1 2 0.0 12.530246 35.707928 11.333746
972 1 2 0.0 9.052195 35.976040 9.446560
973 1 1 0.0 6.896139 29.638483 8.818347
974 1 1 0.0 8.941772 31.769367 10.857297
975 1 1 0.0 13.215910 26.917933 12.188650
976 1 1 0.0 12.318639 30.117441 10.788308
977 1 2 0.0 4.942107 29.779477 8.338164
978 1 2 0.0 12.002831 30.569333 8.867942
979 1 2 0.0 7.512497 28.433514 10.213928
980 1 2 0.0 12.373746 28.430874 11.179761
981 1 2 0.0 14.037736 30.496408 11.802133
982 1 2 0.0 7.513195 29.292554 7.216858
983 1 2 0.0 10.780192 30.885618 11.341946
984 1 2 0.0 7.659813 31.039189 9.465671
985 1 1 0.0 5.609027 24.672976 8.814545
986 1 1 0.0 7.378170 26.884477 10.862837
987 1 1 0.0 11.131135 22.231805 12.196420
988 1 1 0.0 10.501023 25.320722 10.785686
989 1 2 0.0 3.849615 24.769184 8.328907
990 1 2 0.0 10.372520 25.707512 8.861152
991 1 2 0.0 6.043996 23.518925 10.205216
992 1 2 0.0 10.472549 23.666898 11.182359
993 1 2 0.0 12.045145 25.770056 11.794782
994 1 2 0.0 6.301186 24.307776 7.219036
995 1 2 0.0 9.037197 26.060760 11.343279
996 1 2 0.0 6.286594 26.097018 9.466582
997 1 1 0.0 4.338397 19.703183 8.795156
998 1 1 0.0 5.837640 21.992232 10.846215
999 1 1 0.0 9.022821 17.556102 12.227751
1000 1 1 0.0 8.666785 20.530313 10.799337
1001 1 2 0.0 2.790537 19.751536 8.288335
1002 1 2 0.0 8.709435 20.856735 8.886017
1003 1 2 0.0 4.596401 18.598047 10.176523
1004 1 2 0.0 8.551880 18.910680 11.204140
1005 1 2 0.0 10.032110 21.052362 11.807752
1006 1 2 0.0 5.080869 19.325014 7.229037
1007 1 2 0.0 7.301170 21.233388 11.337831
1008 1 2 0.0 4.932473 21.149544 9.449351
1009 1 1 0.0 4.444276 35.552262 12.352430
1010 1 1 0.0 6.887700 37.768830 14.316156
1011 1 1 0.0 11.724692 33.181106 15.757850
1012 1 1 0.0 10.540763 36.265214 14.306247
1013 1 2 0.0 2.272298 35.588430 11.867404
1014 1 2 0.0 9.983121 36.656734 12.398607
1015 1 2 0.0 5.266743 34.443390 13.766689
1016 1 2 0.0 10.664836 34.623351 14.730479
1017 1 2 0.0 12.512498 36.699659 15.301308
1018 1 2 0.0 4.945606 35.181112 10.771366
1019 1 2 0.0 8.930108 36.979006 14.827932
1020 1 2 0.0 5.345656 36.973570 12.959472
1021 1 1 0.0 3.084564 30.624935 12.421729
1022 1 1 0.0 5.205764 32.943766 14.441513
1023 1 1 0.0 9.614286 28.512151 15.793432
1024 1 1 0.0 8.650577 31.504270 14.377340
1025 1 2 0.0 1.095006 30.621424 11.942460
1026 1 2 0.0 8.289017 31.818888 12.454153
1027 1 2 0.0 3.739543 29.567457 13.819615
1028 1 2 0.0 8.717966 29.884837 14.780534
1029 1 2 0.0 10.436337 32.015502 15.379447
1030 1 2 0.0 3.685859 30.218895 10.820872
1031 1 2 0.0 7.089807 32.205957 14.929130
1032 1 2 0.0 3.872940 32.079393 13.059877
1033 1 1 0.0 1.822298 25.672265 12.398876
1034 1 1 0.0 3.628567 28.085312 14.466257
1035 1 1 0.0 7.557508 23.819445 15.775336
1036 1 1 0.0 6.823028 26.719552 14.387115
1037 1 2 0.0 0.032381 25.629178 11.910057
1038 1 2 0.0 6.642387 26.965046 12.463850
1039 1 2 0.0 2.312859 24.661286 13.776473
1040 1 2 0.0 6.829944 25.122876 14.772612
1041 1 2 0.0 8.418270 27.306746 15.399845
1042 1 2 0.0 2.499480 25.238875 10.801280
1043 1 2 0.0 5.336610 27.401469 14.945574
1044 1 2 0.0 2.500894 27.157265 13.064660
1045 1 1 0.0 0.659076 20.693836 12.282360
1046 1 1 0.0 2.154408 23.194010 14.392022
1047 1 1 0.0 5.555555 19.102457 15.702361
1048 1 1 0.0 5.057458 21.911308 14.336217
1049 1 2 0.0 -0.913288 20.611188 11.768051
1050 1 2 0.0 5.042568 22.095432 12.428338
1051 1 2 0.0 0.989695 19.723973 13.634393
1052 1 2 0.0 5.001300 20.337256 14.706192
1053 1 2 0.0 6.456938 22.573966 15.363856
1054 1 2 0.0 1.387844 20.240719 10.711297
1055 1 2 0.0 3.669402 22.565944 14.878350
1056 1 2 0.0 1.229187 22.207278 12.974136
1057 1 1 0.0 0.680590 36.472082 15.898044
1058 1 1 0.0 3.232198 38.845787 17.803085
1059 1 1 0.0 8.159120 34.719496 19.311772
1060 1 1 0.0 6.946257 37.568231 17.805118
1061 1 2 0.0 -1.529738 36.362612 15.418087
1062 1 2 0.0 6.351686 37.827622 15.890381
1063 1 2 0.0 1.524015 35.517608 17.330139
1064 1 2 0.0 7.060512 36.010246 18.264782
1065 1 2 0.0 8.996148 38.121744 18.772324
1066 1 2 0.0 1.166466 36.051196 14.320371
1067 1 2 0.0 5.314452 38.207086 18.322118
1068 1 2 0.0 1.627917 37.930757 16.472384
1069 1 1 0.0 -0.728716 31.604832 16.025111
1070 1 1 0.0 1.463591 34.098824 18.025730
1071 1 1 0.0 6.010905 30.102400 19.398215
1072 1 1 0.0 4.976215 32.874504 17.966372
1073 1 2 0.0 -2.753246 31.458143 15.546756
1074 1 2 0.0 4.569092 33.050303 16.040364
1075 1 2 0.0 -0.033805 30.700090 17.425302
1076 1 2 0.0 5.058591 31.329777 18.381306
1077 1 2 0.0 6.825928 33.513319 18.956760
1078 1 2 0.0 -0.142842 31.139612 14.424885
1079 1 2 0.0 3.393044 33.508627 18.516314
1080 1 2 0.0 0.082088 33.105271 16.654082
1081 1 1 0.0 -1.959344 26.691113 15.983207
1082 1 1 0.0 -0.118991 29.292559 18.069677
1083 1 1 0.0 3.992969 25.427604 19.354252
1084 1 1 0.0 3.148247 28.126851 17.988544
1085 1 2 0.0 -3.780179 26.510404 15.491208
1086 1 2 0.0 2.914684 28.229792 16.066548
1087 1 2 0.0 -1.410891 25.828203 17.347729
1088 1 2 0.0 3.193663 26.594725 18.362866
1089 1 2 0.0 4.792832 28.846830 19.004908
1090 1 2 0.0 -1.297259 26.190443 14.383525
1091 1 2 0.0 1.638787 28.749837 18.547870
1092 1 2 0.0 -1.281560 28.229203 16.662737
1093 1 1 0.0 -3.008366 21.730162 15.769564
1094 1 1 0.0 -1.518570 24.427954 17.937829
1095 1 1 0.0 2.108221 20.693818 19.176971
1096 1 1 0.0 1.460859 23.325837 17.873096
1097 1 2 0.0 -4.606615 21.518533 15.247767
1098 1 2 0.0 1.386673 23.366694 15.970659
1099 1 2 0.0 -2.601844 20.900321 17.092263
1100 1 2 0.0 1.466963 21.804598 18.208244
1101 1 2 0.0 2.893651 24.123637 18.919961
1102 1 2 0.0 -2.293882 21.202986 14.193556
1103 1 2 0.0 0.049541 23.931490 18.418868
1104 1 2 0.0 -2.463629 23.302720 16.498920
1105 1 1 0.0 -3.091826 37.358338 19.443659
1106 1 1 0.0 -0.438095 39.876345 21.290015
1107 1 1 0.0 4.580703 36.228885 22.865695
1108 1 1 0.0 3.335613 38.828730 21.303990
1109 1 2 0.0 -5.338964 37.104128 18.968770
1110 1 2 0.0 2.705344 38.954266 19.382155
1111 1 2 0.0 -2.227120 36.563879 20.893588
1112 1 2 0.0 3.442404 37.362544 21.799085
1113 1 2 0.0 5.459957 39.496973 22.243339
1114 1 2 0.0 -2.620541 36.888853 17.869376
1115 1 2 0.0 1.682879 39.391069 21.816304
1116 1 2 0.0 -2.101339 38.846469 19.985296
1117 1 1 0.0 -4.543747 32.577996 19.628493
1118 1 1 0.0 -2.284927 35.233983 21.609947
1119 1 1 0.0 2.405732 31.688604 23.002998
1120 1 1 0.0 1.295424 34.227801 21.555404
1121 1 2 0.0 -6.602683 32.289473 19.151052
1122 1 2 0.0 0.842949 34.263264 19.626576
1123 1 2 0.0 -3.807558 31.831376 21.030989
1124 1 2 0.0 1.395549 32.765514 21.982079
1125 1 2 0.0 3.206331 34.989438 22.534073
1126 1 2 0.0 -3.972937 32.054579 18.028898
1127 1 2 0.0 -0.310259 34.793177 22.103498
1128 1 2 0.0 -3.712852 34.116421 20.248287
1129 1 1 0.0 -5.735759 27.730058 19.567538
1130 1 1 0.0 -3.864446 30.506404 21.673096
1131 1 1 0.0 0.437692 27.056673 22.933168
1132 1 1 0.0 -0.523253 29.542794 21.589972
1133 1 2 0.0 -7.587921 27.413518 19.072358
1134 1 2 0.0 -0.810547 29.501875 19.669245
1135 1 2 0.0 -5.127044 27.020371 20.918986
1136 1 2 0.0 -0.436167 28.082764 21.953119
1137 1 2 0.0 1.168860 30.390374 22.609971
1138 1 2 0.0 -5.088920 27.162939 17.965769
1139 1 2 0.0 -2.056200 30.106063 22.150165
1140 1 2 0.0 -5.060677 29.313160 20.260815
1141 1 1 0.0 -6.663603 22.813416 19.256768
1142 1 1 0.0 -5.180996 25.694994 21.483637
1143 1 1 0.0 -1.318797 22.331046 22.651581
1144 1 1 0.0 -2.122749 24.774592 21.409976
1145 1 2 0.0 -8.289120 22.475043 18.727482
1146 1 2 0.0 -2.258060 24.671082 19.512981
1147 1 2 0.0 -6.177785 22.128520 20.550133
1148 1 2 0.0 -2.050806 23.313524 21.710295
1149 1 2 0.0 -0.657518 25.701926 22.476066
1150 1 2 0.0 -5.964057 22.212858 17.675815
1151 1 2 0.0 -3.558109 25.330869 21.959386
1152 1 2 0.0 -6.145683 24.436927 20.023705
1153 1 1 0.0 -6.873364 38.209517 22.989273
1154 1 1 0.0 -4.123870 40.858339 24.776944
1155 1 1 0.0 0.988978 37.708228 26.419617
1156 1 1 0.0 -0.291777 40.045112 24.802862
1157 1 2 0.0 -9.155731 37.811386 22.519453
1158 1 2 0.0 -0.956413 40.035158 22.873929
1159 1 2 0.0 -5.987048 37.580919 24.457037
1160 1 2 0.0 -0.189998 38.678966 25.333388
1161 1 2 0.0 1.903199 40.823628 25.714355
1162 1 2 0.0 -6.415729 37.692799 21.418381
1163 1 2 0.0 -1.965294 40.529059 25.310490
1164 1 2 0.0 -5.842635 39.718813 23.498208
1165 1 1 0.0 -8.360608 33.544121 23.231875
1166 1 1 0.0 -6.040084 36.348312 25.194163
1167 1 1 0.0 -1.201298 33.270617 26.607780
1168 1 1 0.0 -2.392037 35.563524 25.144436
1169 1 2 0.0 -10.453365 33.115151 22.755348
1170 1 2 0.0 -2.889624 35.457142 23.212787
1171 1 2 0.0 -7.581736 32.961252 24.636675
1172 1 2 0.0 -2.271295 34.191706 25.582851
1173 1 2 0.0 -0.422790 36.443063 26.111386
1174 1 2 0.0 -7.804483 32.963569 21.632911
1175 1 2 0.0 -4.020384 36.058827 25.690682
1176 1 2 0.0 -7.512068 35.112170 23.842493
1177 1 1 0.0 -9.506713 28.790003 23.151869
1178 1 1 0.0 -7.607699 31.727156 25.276516
1179 1 1 0.0 -3.107991 28.707407 26.512084
1180 1 1 0.0 -4.191349 30.967706 25.191401
1181 1 2 0.0 -11.390610 28.339588 22.653509
1182 1 2 0.0 -4.533222 30.781544 23.271943
1183 1 2 0.0 -8.835252 28.238952 24.490243
1184 1 2 0.0 -4.059308 29.587592 25.543372
1185 1 2 0.0 -2.453593 31.937507 26.215034
1186 1 2 0.0 -8.875302 28.157192 21.548013
1187 1 2 0.0 -5.748229 31.470482 25.752461
1188 1 2 0.0 -8.836304 30.409684 23.858893
1189 1 1 0.0 -10.306087 23.945709 22.743972
1190 1 1 0.0 -8.832380 26.996676 25.029444
1191 1 1 0.0 -4.724769 24.015794 26.126191
1192 1 1 0.0 -5.692878 26.258859 24.946855
1193 1 2 0.0 -11.960275 23.483114 22.207198
1194 1 2 0.0 -5.891251 26.009727 23.055302
1195 1 2 0.0 -9.737410 23.410954 24.008002
1196 1 2 0.0 -5.551395 24.865569 25.212347
1197 1 2 0.0 -4.196125 27.309884 26.032171
1198 1 2 0.0 -9.622223 23.272220 21.158074
1199 1 2 0.0 -7.153022 26.765536 25.499904
1200 1 2 0.0 -9.816481 25.611670 23.548490
1201 1 1 0.0 -10.664613 39.023357 26.534888
1202 1 1 0.0 -7.826154 41.788544 28.263873
1203 1 1 0.0 -2.616779 39.155887 29.973540
1204 1 1 0.0 -3.936854 41.214896 28.301734
1205 1 2 0.0 -12.980557 38.482029 26.070136
1206 1 2 0.0 -4.634394 41.067903 26.365703
1207 1 2 0.0 -9.756348 38.566808 28.020486
1208 1 2 0.0 -3.837488 39.957520 28.867691
1209 1 2 0.0 -1.675263 42.099029 29.185371
1210 1 2 0.0 -10.219575 38.461064 24.967387
1211 1 2 0.0 -5.631101 41.618194 28.804676
1212 1 2 0.0 -9.596759 40.544956 27.011120
1213 1 1 0.0 -12.179418 34.502755 26.835256
1214 1 1 0.0 -9.802322 37.440430 28.778380
1215 1 1 0.0 -4.810284 34.848211 30.212563
1216 1 1 0.0 -6.086543 36.880685 28.733468
1217 1 2 0.0 -14.305377 33.934788 26.359644
1218 1 2 0.0 -6.628963 36.630939 26.798999
1219 1 2 0.0 -11.356364 34.089627 28.242362
1220 1 2 0.0 -5.942153 35.607825 29.183624
1221 1 2 0.0 -4.061961 37.872955 29.688699
1222 1 2 0.0 -11.637564 33.866232 25.236924
1223 1 2 0.0 -7.737755 37.304402 29.277866
1224 1 2 0.0 -11.315840 36.091513 27.436698
1225 1 1 0.0 -13.271852 29.872305 26.736201
1226 1 1 0.0 -11.348605 32.955272 28.879936
1227 1 1 0.0 -6.643555 30.380987 30.091000
1228 1 1 0.0 -7.855848 32.402091 28.792829
1229 1 2 0.0 -15.187899 29.290190 26.234659
1230 1 2 0.0 -8.253206 32.069198 26.874641
1231 1 2 0.0 -12.534992 29.485682 28.061499
1232 1 2 0.0 -7.675389 31.110140 29.133625
1233 1 2 0.0 -6.074444 33.488424 29.820097
1234 1 2 0.0 -12.656096 29.174472 25.130257
1235 1 2 0.0 -9.437118 32.843605 29.354756
1236 1 2 0.0 -12.608215 31.519596 27.456971
1237 1 1 0.0 -13.934993 25.130207 26.231176
1238 1 1 0.0 -12.471987 28.335299 28.575251
1239 1 1 0.0 -8.108548 25.750652 29.600801
1240 1 1 0.0 -9.248769 27.780634 28.483735
1241 1 2 0.0 -15.619301 24.546293 25.686913
1242 1 2 0.0 -9.512295 27.384421 26.597623
1243 1 2 0.0 -13.279648 24.751186 27.465872
1244 1 2 0.0 -9.033848 26.463130 28.714399
1245 1 2 0.0 -7.721475 28.949148 29.588275
1246 1 2 0.0 -13.267678 24.383965 24.640334
1247 1 2 0.0 -10.734406 28.237686 29.040422
1248 1 2 0.0 -13.475291 26.829595 27.073275
1249 1 1 0.0 -14.466419 39.796606 30.080502
1250 1 1 0.0 -11.546421 42.662340 31.750803
1251 1 1 0.0 -6.237626 40.569474 33.527462
1252 1 1 0.0 -7.600986 42.334479 31.800605
1253 1 2 0.0 -16.814184 39.112689 29.620820
1254 1 2 0.0 -8.329778 42.048993 29.857477
1255 1 2 0.0 -13.535847 39.518793 31.583935
1256 1 2 0.0 -7.501221 41.195307 32.401994
1257 1 2 0.0 -5.277079 43.319273 32.656386
1258 1 2 0.0 -14.032770 39.190797 28.516392
1259 1 2 0.0 -9.316029 42.654353 32.298862
1260 1 2 0.0 -13.364838 41.320838 30.524032
1261 1 1 0.0 -16.000346 35.453245 30.438638
1262 1 1 0.0 -13.572273 38.508353 32.362597
1263 1 1 0.0 -8.421376 36.421052 33.817345
1264 1 1 0.0 -9.788641 38.177847 32.322500
1265 1 2 0.0 -18.158840 34.747830 29.963940
1266 1 2 0.0 -10.375561 37.783191 30.385210
1267 1 2 0.0 -15.131485 35.216368 31.848049
1268 1 2 0.0 -9.617332 37.013099 32.784396
1269 1 2 0.0 -7.711947 39.277305 33.266012
1270 1 2 0.0 -15.472303 34.762064 28.840937
1271 1 2 0.0 -11.462982 38.528207 32.865050
1272 1 2 0.0 -15.124567 37.053008 31.030903
1273 1 1 0.0 -17.030670 30.978910 30.320532
1274 1 1 0.0 -15.086953 34.191410 32.483356
1275 1 1 0.0 -10.168239 32.079132 33.669916
1276 1 1 0.0 -11.516474 33.846682 32.394258
1277 1 2 0.0 -18.979291 30.267584 29.815810
1278 1 2 0.0 -11.970305 33.365417 30.477338
1279 1 2 0.0 -16.225517 30.763045 31.632756
1280 1 2 0.0 -11.283869 32.651764 32.723879
1281 1 2 0.0 -9.693569 35.043416 33.425160
1282 1 2 0.0 -16.430855 30.216620 28.712502
1283 1 2 0.0 -13.122599 34.226166 32.957052
1284 1 2 0.0 -16.376081 32.644073 31.055049
1285 1 1 0.0 -17.549141 26.371454 29.718380
1286 1 1 0.0 -16.098767 29.714160 32.121059
1287 1 1 0.0 -11.468461 27.539394 33.075411
1288 1 1 0.0 -12.789323 29.342820 32.020614
1289 1 2 0.0 -19.265080 25.669650 29.166629
1290 1 2 0.0 -13.120308 28.797791 30.139945
1291 1 2 0.0 -16.802963 26.154320 30.923742
1292 1 2 0.0 -12.496779 28.109689 32.216450
1293 1 2 0.0 -11.232560 30.622100 33.144380
1294 1 2 0.0 -16.899408 25.552277 28.122593
1295 1 2 0.0 -14.301120 29.750481 32.580940
1296 1 2 0.0 -17.121057 28.094498 30.598059
1297 1 1 0.0 -18.279985 40.524638 33.626116
1298 1 1 0.0 -15.286769 43.473144 35.237732
1299 1 1 0.0 -9.875070 41.945590 37.081385
1300 1 1 0.0 -11.286121 43.398726 35.299477
1301 1 2 0.0 -20.657670 39.698562 33.171503
1302 1 2 0.0 -12.044254 42.973424 33.349251
1303 1 2 0.0 -17.326724 40.432956 35.147385
1304 1 2 0.0 -11.182843 42.388198 35.936297
1305 1 2 0.0 -8.904605 44.478802 36.127402
1306 1 2 0.0 -17.856300 39.877940 32.065397
1307 1 2 0.0 -13.022194 43.631670 35.793048
1308 1 2 0.0 -17.148477 42.040676 34.036944
1309 1 1 0.0 -19.823633 36.394663 34.042020
1310 1 1 0.0 -17.350837 39.549260 35.946813
1311 1 1 0.0 -12.034782 37.988666 37.422128
1312 1 1 0.0 -13.499105 39.452967 35.911531
1313 1 2 0.0 -22.013929 35.553482 33.568236
1314 1 2 0.0 -14.130122 38.911812 33.971422
1315 1 2 0.0 -18.907154 36.341285 35.453735
1316 1 2 0.0 -13.297270 38.406430 36.385169
1317 1 2 0.0 -11.373838 40.653539 36.843325
1318 1 2 0.0 -19.308875 35.650343 32.444950
1319 1 2 0.0 -15.196937 39.727833 36.452234
1320 1 2 0.0 -18.938819 37.994601 34.625109
1321 1 1 0.0 -20.782448 32.112587 33.904863
1322 1 1 0.0 -18.822445 35.436507 36.086775
1323 1 1 0.0 -13.680956 33.804296 37.248833
1324 1 1 0.0 -15.172830 35.302523 35.995687
1325 1 2 0.0 -22.764077 31.274987 33.396961
1326 1 2 0.0 -15.684238 34.671031 34.080036
1327 1 2 0.0 -19.905760 32.074585 35.204013
1328 1 2 0.0 -14.883978 34.214398 36.314132
1329 1 2 0.0 -13.310796 36.602892 37.030223
1330 1 2 0.0 -20.198945 31.286255 32.294746
1331 1 2 0.0 -16.804297 35.619209 36.559348
1332 1 2 0.0 -20.139438 33.784791 34.653127
1333 1 1 0.0 -21.146847 27.675918 33.205584
1334 1 1 0.0 -19.711223 31.137953 35.666866
1335 1 1 0.0 -14.802126 29.387401 36.550022
1336 1 1 0.0 -16.312969 30.949548 35.557494
1337 1 2 0.0 -22.896021 26.860414 32.646345
1338 1 2 0.0 -16.714027 30.253584 33.682266
1339 1 2 0.0 -20.305168 27.627630 34.381612
1340 1 2 0.0 -15.938210 29.810209 35.718502
1341 1 2 0.0 -14.727943 32.332137 36.700485
1342 1 2 0.0 -20.515965 26.783115 31.604852
1343 1 2 0.0 -17.851540 31.308421 36.121458
1344 1 2 0.0 -20.752279 29.411784 34.122844
1345 1 1 0.0 35.891497 20.955412 194.429681
1346 1 1 0.0 37.540157 21.376667 196.804203
1347 1 1 0.0 40.109101 13.274292 197.776943
1348 1 1 0.0 39.996606 17.755345 196.710696
1349 1 2 0.0 34.310413 22.419175 193.909173
1350 1 2 0.0 40.004061 19.038428 194.852741
1351 1 2 0.0 36.124108 18.824094 195.719097
1352 1 2 0.0 39.818148 15.740486 196.886909
1353 1 2 0.0 41.170929 16.958640 197.900750
1354 1 2 0.0 36.505794 20.815050 192.824882
1355 1 2 0.0 38.841552 19.250877 197.265181
1356 1 2 0.0 36.585188 21.767340 195.265639
1357 1 1 0.0 34.102519 16.636493 194.094609
1358 1 1 0.0 35.720990 17.027116 196.248548
1359 1 1 0.0 37.685121 9.383361 197.456506
1360 1 1 0.0 37.996794 13.581658 196.150668
1361 1 2 0.0 32.637265 18.021464 193.608940
1362 1 2 0.0 38.225401 14.798985 194.247225
1363 1 2 0.0 34.080780 14.617081 195.476360
1364 1 2 0.0 37.622958 11.694370 196.471678
1365 1 2 0.0 39.115041 12.804589 197.234807
1366 1 2 0.0 34.811400 16.514412 192.489332
1367 1 2 0.0 36.872224 15.005449 196.715394
1368 1 2 0.0 34.851803 17.404643 194.796991
1369 1 1 0.0 31.879727 12.538536 194.205109
1370 1 1 0.0 33.480227 12.921912 196.138870
1371 1 1 0.0 34.835476 5.805138 197.619474
1372 1 1 0.0 35.555360 9.696949 196.073667
1373 1 2 0.0 30.537861 13.820959 193.738555
1374 1 2 0.0 35.978807 10.841088 194.141518
1375 1 2 0.0 31.617035 10.644613 195.674227
1376 1 2 0.0 34.992823 7.943154 196.537391
1377 1 2 0.0 36.620681 8.961723 197.060956
1378 1 2 0.0 32.657282 12.438524 192.622122
1379 1 2 0.0 34.477457 11.028557 196.626057
1380 1 2 0.0 32.687560 13.270372 194.774666
1381 1 1 0.0 29.216015 8.665163 194.768483
1382 1 1 0.0 30.824719 9.057082 196.467922
1383 1 1 0.0 31.550664 2.546606 198.276641
1384 1 1 0.0 32.676948 6.098179 196.474611
1385 1 2 0.0 28.003699 9.821595 194.306594
1386 1 2 0.0 33.270813 7.160807 194.528640
1387 1 2 0.0 28.720319 6.913692 196.325856
1388 1 2 0.0 31.923824 4.489494 197.088382
1389 1 2 0.0 33.698118 5.422754 197.367675
1390 1 2 0.0 30.034820 8.591600 193.232034
1391 1 2 0.0 31.662699 7.316761 196.991274
1392 1 2 0.0 30.093879 9.363774 195.197194
1393 1 1 0.0 32.526307 22.884206 197.975296
1394 1 1 0.0 34.375522 23.514299 0.291132
1395 1 1 0.0 37.096848 15.732757 1.330866
1396 1 1 0.0 36.949759 20.081056 0.209568
1397 1 2 0.0 30.862946 24.207114 197.459856
1398 1 2 0.0 36.889115 21.261557 198.344515
1399 1 2 0.0 32.801296 20.859688 199.282546
1400 1 2 0.0 36.750632 18.097500 0.421212
1401 1 2 0.0 38.260330 19.410326 1.371765
1402 1 2 0.0 33.109224 22.696417 196.373887
1403 1 2 0.0 35.755071 21.513695 0.759367
1404 1 2 0.0 33.304226 23.773139 198.778551
1405 1 1 0.0 30.611666 18.457644 197.697990
1406 1 1 0.0 32.389190 19.088308 199.832765
1407 1 1 0.0 34.527264 11.737491 1.061289
1408 1 1 0.0 34.775998 15.821451 199.739700
1409 1 2 0.0 29.075228 19.701273 197.213236
1410 1 2 0.0 34.932189 16.925978 197.833436
1411 1 2 0.0 30.644026 16.543162 199.082047
1412 1 2 0.0 34.400830 13.952765 0.072451
1413 1 2 0.0 36.011900 15.185652 0.812120
1414 1 2 0.0 31.289142 18.275531 196.093345
1415 1 2 0.0 33.616155 17.189960 0.302578
1416 1 2 0.0 31.421282 19.317971 198.391196
1417 1 1 0.0 28.338003 14.213950 197.789440
1418 1 1 0.0 30.055079 14.863882 199.742290
1419 1 1 0.0 31.599578 8.005299 1.198390
1420 1 1 0.0 32.231714 11.804301 199.675095
1421 1 2 0.0 26.937370 15.357423 197.319705
1422 1 2 0.0 32.580309 12.828035 197.744215
1423 1 2 0.0 28.139494 12.420367 199.245484
1424 1 2 0.0 31.685709 10.055722 0.127644
1425 1 2 0.0 33.394988 11.222492 0.666019
1426 1 2 0.0 29.084700 14.042550 196.204366
1427 1 2 0.0 31.123764 13.089337 0.228353
1428 1 2 0.0 29.182217 15.051605 198.372744
1429 1 1 0.0 25.699435 10.156121 198.255687
1430 1 1 0.0 27.378838 10.837745 0.013729
1431 1 1 0.0 28.305794 4.542057 1.751252
1432 1 1 0.0 29.320801 8.027056 0.011491
1433 1 2 0.0 24.442389 11.178796 197.786309
1434 1 2 0.0 29.838990 8.964410 198.070962
1435 1 2 0.0 25.277330 8.497091 199.783726
1436 1 2 0.0 28.601976 6.408605 0.590434
1437 1 2 0.0 30.418221 7.514722 0.923780
1438 1 2 0.0 26.488691 10.000997 196.714293
1439 1 2 0.0 28.282425 9.208969 0.531793
1440 1 2 0.0 26.588207 10.973420 198.721979
1441 1 1 0.0 29.142754 24.776950 1.520910
1442 1 1 0.0 31.182705 25.603306 3.778061
1443 1 1 0.0 34.061304 18.159518 4.884789
1444 1 1 0.0 33.872366 22.360087 3.708440
1445 1 2 0.0 27.399486 25.960486 1.010539
1446 1 2 0.0 33.743897 23.434374 1.836289
1447 1 2 0.0 29.462005 22.865745 2.845995
1448 1 2 0.0 33.657367 20.416537 3.955515
1449 1 2 0.0 35.313366 21.810773 4.842781
1450 1 2 0.0 29.694923 24.541515 199.922892
1451 1 2 0.0 32.639002 23.729639 4.253554
1452 1 2 0.0 29.999845 25.734766 2.291463
1453 1 1 0.0 27.117129 20.271561 1.301372
1454 1 1 0.0 29.045304 21.128645 3.416982
1455 1 1 0.0 31.366159 14.087198 4.666071
1456 1 1 0.0 31.543035 18.042649 3.328732
1457 1 2 0.0 25.510552 21.375379 0.817532
1458 1 2 0.0 31.626351 19.031987 1.419648
1459 1 2 0.0 27.206477 18.467818 2.687733
1460 1 2 0.0 31.171853 16.201057 3.673223
1461 1 2 0.0 32.891920 17.542989 4.389433
1462 1 2 0.0 27.763740 20.030218 199.697358
1463 1 2 0.0 30.347928 19.355210 3.889762
1464 1 2 0.0 27.982444 21.215613 1.985402
1465 1 1 0.0 24.807272 15.910947 1.373771
1466 1 1 0.0 26.633938 16.812767 3.345710
1467 1 1 0.0 28.380473 10.228320 4.777307
1468 1 1 0.0 28.914277 13.921143 3.276524
1469 1 2 0.0 23.347595 16.917049 0.900856
1470 1 2 0.0 29.186832 14.823325 1.346913
1471 1 2 0.0 24.676843 14.222812 2.816741
1472 1 2 0.0 28.390645 12.186063 3.717898
1473 1 2 0.0 30.171980 13.487046 4.271082
1474 1 2 0.0 25.523562 15.669983 199.786611
1475 1 2 0.0 27.775343 15.158469 3.830648
1476 1 2 0.0 25.683661 16.845639 1.970822
1477 1 1 0.0 22.208526 11.697478 1.742891
1478 1 1 0.0 23.953059 12.653092 3.559537
1479 1 1 0.0 25.097759 6.587649 5.225862
1480 1 1 0.0 25.989242 9.993508 3.548371
1481 1 2 0.0 20.905149 12.588024 1.266025
1482 1 2 0.0 26.429834 10.805684 1.613283
1483 1 2 0.0 21.864916 10.135293 3.241596
1484 1 2 0.0 25.311078 8.373361 4.092485
1485 1 2 0.0 27.160535 9.637986 4.479884
1486 1 2 0.0 22.968594 11.463642 0.196552
1487 1 2 0.0 24.924851 11.137142 4.072311
1488 1 2 0.0 23.104423 12.624353 2.246764
1489 1 1 0.0 25.742162 26.636241 5.066524
1490 1 1 0.0 27.963687 27.647105 7.264991
1491 1 1 0.0 31.004384 20.557181 8.438711
1492 1 1 0.0 30.766881 24.596187 7.207311
1493 1 2 0.0 23.921124 27.681646 4.561223
1494 1 2 0.0 30.570965 25.561130 5.328063
1495 1 2 0.0 26.107405 24.844360 6.409444
1496 1 2 0.0 30.540439 22.700674 7.489818
1497 1 2 0.0 32.333000 24.164154 8.313797
1498 1 2 0.0 26.264274 26.353173 3.471897
1499 1 2 0.0 29.495542 25.902186 7.747740
1500 1 2 0.0 26.673717 27.655372 5.804375
1501 1 1 0.0 23.619174 22.078767 4.904754
1502 1 1 0.0 25.690180 23.149593 7.001198
1503 1 1 0.0 28.202072 16.432847 8.270854
1504 1 1 0.0 28.298880 20.246746 6.917764
1505 1 2 0.0 21.943417 23.044172 4.421828
1506 1 2 0.0 28.308955 21.118784 5.005859
1507 1 2 0.0 23.768191 20.391152 6.293420
1508 1 2 0.0 27.936581 18.440065 7.273996
1509 1 2 0.0 29.756472 19.878530 7.966746
1510 1 2 0.0 24.235440 21.778977 3.301371
1511 1 2 0.0 27.068445 21.502627 7.476946
1512 1 2 0.0 24.535884 23.098688 5.579607
1513 1 1 0.0 21.286743 17.627973 4.958103
1514 1 1 0.0 23.216523 18.768081 6.949130
1515 1 1 0.0 25.176781 12.472322 8.356223
1516 1 1 0.0 25.602551 16.046713 6.877952
1517 1 2 0.0 19.767805 18.498259 4.482006
1518 1 2 0.0 25.797950 16.826253 4.949611
1519 1 2 0.0 21.228024 16.050052 6.387998
1520 1 2 0.0 25.106654 14.332735 7.308151
1521 1 2 0.0 26.951439 15.755077 7.876145
1522 1 2 0.0 21.972974 17.318998 3.368855
1523 1 2 0.0 24.431801 17.235332 7.432944
1524 1 2 0.0 22.191407 18.651560 5.568900
1525 1 1 0.0 18.741440 13.285606 5.230095
1526 1 1 0.0 20.545970 14.500686 7.105344
1527 1 1 0.0 21.923533 8.679263 8.700472
1528 1 1 0.0 22.680295 11.994517 7.085250
1529 1 2 0.0 17.390338 14.045733 4.745740
1530 1 2 0.0 23.041428 12.681445 5.155604
1531 1 2 0.0 18.480905 11.824409 6.699466
1532 1 2 0.0 22.048620 10.380064 7.594537
1533 1 2 0.0 23.923251 11.789997 8.035989
1534 1 2 0.0 19.472497 12.975379 3.678811
1535 1 2 0.0 21.588294 13.098609 7.612829
1536 1 2 0.0 19.640967 14.313626 5.771548
1537 1 1 0.0 22.325442 28.463867 8.612139
1538 1 1 0.0 24.719827 29.648042 10.751920
1539 1 1 0.0 27.927421 22.927563 11.992634
1540 1 1 0.0 27.635013 26.791968 10.706183
1541 1 2 0.0 20.428603 29.372203 8.111906
1542 1 2 0.0 27.372110 27.644801 8.819837
1543 1 2 0.0 22.738300 26.796975 9.972894
1544 1 2 0.0 27.401305 24.952058 11.024122
1545 1 2 0.0 29.321295 26.473378 11.784812
1546 1 2 0.0 22.818238 28.133357 7.020902
1547 1 2 0.0 26.326209 28.033743 11.241926
1548 1 2 0.0 23.326989 29.537124 9.317287
1549 1 1 0.0 20.117982 23.879620 8.508136
1550 1 1 0.0 22.324401 25.152157 10.585415
1551 1 1 0.0 25.035189 18.774691 11.875636
1552 1 1 0.0 25.044217 22.434782 10.506796
1553 1 2 0.0 18.373947 24.707916 8.026124
1554 1 2 0.0 24.980746 23.187611 8.592070
1555 1 2 0.0 20.329205 22.313232 9.899107
1556 1 2 0.0 24.695401 20.670360 10.874768
1557 1 2 0.0 26.606513 22.193623 11.544059
1558 1 2 0.0 20.704411 23.522154 6.905384
1559 1 2 0.0 23.778330 23.633200 11.064130
1560 1 2 0.0 21.082008 24.967966 9.173812
1561 1 1 0.0 17.775871 19.363959 8.542434
1562 1 1 0.0 19.802641 20.729491 10.552549
1563 1 1 0.0 21.987540 14.735994 11.935139
1564 1 1 0.0 22.296189 18.180480 10.479381
1565 1 2 0.0 16.197502 20.099974 8.063157
1566 1 2 0.0 22.413367 18.836326 8.552308
1567 1 2 0.0 17.792313 17.900786 9.959254
1568 1 2 0.0 21.833054 16.494733 10.898404
1569 1 2 0.0 23.733213 18.026368 11.481208
1570 1 2 0.0 18.432317 18.988326 6.951099
1571 1 2 0.0 21.092869 19.319498 11.035239
1572 1 2 0.0 18.705122 20.468740 9.166978
1573 1 1 0.0 15.296903 14.918005 8.717299
1574 1 1 0.0 17.156601 16.378855 10.651152
1575 1 1 0.0 18.781003 10.814021 12.175082
1576 1 1 0.0 19.392585 14.027981 10.622130
1577 1 2 0.0 13.896838 15.549502 8.225456
1578 1 2 0.0 19.672432 14.589466 8.697926
1579 1 2 0.0 15.123806 13.561765 10.157335
1580 1 2 0.0 18.812853 12.426134 11.096589
1581 1 2 0.0 20.705108 13.968979 11.592094
1582 1 2 0.0 15.998988 14.533321 7.161071
1583 1 2 0.0 18.271587 15.091526 11.153347
1584 1 2 0.0 16.196765 16.039216 9.296333
1585 1 1 0.0 18.893181 30.260981 12.157753
1586 1 1 0.0 21.451994 31.607617 14.238849
1587 1 1 0.0 24.831316 25.271886 15.546556
1588 1 1 0.0 24.477905 28.949176 14.205055
1589 1 2 0.0 16.922393 31.033171 11.662589
1590 1 2 0.0 24.148540 29.687397 12.311611
1591 1 2 0.0 19.355205 28.724514 13.536343
1592 1 2 0.0 24.240937 27.172127 14.558425
1593 1 2 0.0 26.279637 28.740397 15.255828
1594 1 2 0.0 19.357453 29.883371 10.569907
1595 1 2 0.0 23.131993 30.125878 14.736112
1596 1 2 0.0 19.960401 31.381415 12.830199
1597 1 1 0.0 16.613673 25.674351 12.111517
1598 1 1 0.0 18.948340 27.136980 14.169632
1599 1 1 0.0 21.865636 21.112899 15.480419
1600 1 1 0.0 21.779498 24.607451 14.095828
1601 1 2 0.0 14.802218 26.366778 11.630420
1602 1 2 0.0 21.642229 25.239306 12.178282
1603 1 2 0.0 16.889545 24.234104 13.504793
1604 1 2 0.0 21.448573 22.892324 14.475541
1605 1 2 0.0 23.442683 24.489173 15.121372
1606 1 2 0.0 17.170767 25.259983 10.509397
1607 1 2 0.0 20.477991 25.747573 14.651314
1608 1 2 0.0 17.621080 26.823941 12.768018
1609 1 1 0.0 14.274304 21.118212 12.126765
1610 1 1 0.0 16.392168 22.696782 14.155969
1611 1 1 0.0 18.812102 17.018454 15.514055
1612 1 1 0.0 18.994959 20.322088 14.080810
1613 1 2 0.0 12.636371 21.721515 11.644308
1614 1 2 0.0 19.032882 20.853210 12.155006
1615 1 2 0.0 14.369242 19.774177 13.530511
1616 1 2 0.0 18.569391 18.671386 14.488657
1617 1 2 0.0 20.517200 20.300777 15.086271
1618 1 2 0.0 14.901179 20.677124 10.533343
1619 1 2 0.0 17.758370 21.410687 14.637535
1620 1 2 0.0 15.224592 22.296776 12.765056
1621 1 1 0.0 11.874094 16.593061 12.204503
1622 1 1 0.0 13.784332 18.286528 14.196959
1623 1 1 0.0 15.668750 12.989993 15.649692
1624 1 1 0.0 16.125192 16.092495 14.159009
1625 1 2 0.0 10.423941 17.097804 11.705172
1626 1 2 0.0 16.321940 16.528241 12.240247
1627 1 2 0.0 11.792664 15.345646 13.615205
1628 1 2 0.0 15.602607 14.509843 14.598640
1629 1 2 0.0 17.505260 16.173739 15.148199
1630 1 2 0.0 12.547133 16.135555 10.643330
1631 1 2 0.0 14.973971 17.114688 14.693865
1632 1 2 0.0 12.771125 17.799819 12.821118
1633 1 1 0.0 15.445695 32.028206 15.703367
1634 1 1 0.0 18.160643 33.526612 17.725779
1635 1 1 0.0 21.716608 27.590889 19.100479
1636 1 1 0.0 21.296234 31.068848 17.703927
1637 1 2 0.0 13.402730 32.665060 15.213272
1638 1 2 0.0 20.901002 31.690155 15.803385
1639 1 2 0.0 15.958394 30.627467 17.099792
1640 1 2 0.0 21.059920 29.361739 18.092728
1641 1 2 0.0 23.208858 30.966383 18.726844
1642 1 2 0.0 15.882288 31.603972 14.118913
1643 1 2 0.0 19.913444 32.179464 18.230298
1644 1 2 0.0 16.574345 33.188986 16.343111
1645 1 1 0.0 13.106308 27.463086 15.714899
1646 1 1 0.0 15.562193 29.104400 17.753848
1647 1 1 0.0 18.693489 23.447576 19.085202
1648 1 1 0.0 18.504996 26.765169 17.684860
1649 1 2 0.0 11.228270 28.020843 15.234716
1650 1 2 0.0 18.293714 27.274386 15.764493
1651 1 2 0.0 13.449224 26.153790 17.110480
1652 1 2 0.0 18.196252 25.106186 18.076313
1653 1 2 0.0 20.265367 26.765720 18.698685
1654 1 2 0.0 13.634574 26.992596 14.113410
1655 1 2 0.0 17.167652 27.846106 18.238498
1656 1 2 0.0 14.153239 28.666877 16.362223
1657 1 1 0.0 10.781852 22.890360 15.711096
1658 1 1 0.0 12.985040 24.669844 17.759389
1659 1 1 0.0 15.650076 19.319172 19.092971
1660 1 1 0.0 15.698722 22.471328 17.682238
1661 1 2 0.0 9.084255 23.362541 15.225458
1662 1 2 0.0 15.656372 22.876700 15.757704
1663 1 2 0.0 10.958565 21.669785 17.101768
1664 1 2 0.0 15.315390 20.862291 18.078911
1665 1 2 0.0 17.303337 22.578216 18.691334
1666 1 2 0.0 11.379321 22.384905 14.115588
1667 1 2 0.0 14.428206 23.508744 18.239830
1668 1 2 0.0 11.749704 24.135452 16.363133
1669 1 1 0.0 8.472570 18.309906 15.691707
1670 1 1 0.0 10.428839 20.223146 17.742766
1671 1 1 0.0 12.585916 15.206010 19.124302
1672 1 1 0.0 12.877571 18.187223 17.695889
1673 1 2 0.0 6.971292 18.689873 15.184887
1674 1 2 0.0 12.989395 18.496845 15.782568
1675 1 2 0.0 8.486970 17.175144 17.073075
1676 1 2 0.0 12.417179 16.630158 18.100692
1677 1 2 0.0 14.323200 18.403562 18.704303
1678 1 2 0.0 9.116388 17.780969 14.125589
1679 1 2 0.0 11.695024 19.167427 18.234383
1680 1 2 0.0 9.363682 19.594743 16.345903
1681 1 1 0.0 11.983056 33.765681 19.248982
1682 1 1 0.0 14.845852 35.405164 21.212708
1683 1 1 0.0 18.583532 29.884888 22.654401
1684 1 1 0.0 18.090275 33.151401 21.202798
1685 1 2 0.0 9.869634 34.267915 18.763955
1686 1 2 0.0 17.629835 33.653644 19.295159
1687 1 2 0.0 12.547920 32.505929 20.663241
1688 1 2 0.0 17.858495 31.521252 21.627031
1689 1 2 0.0 20.109304 33.151824 22.197860
1690 1 2 0.0 12.392879 33.295438 17.667918
1691 1 2 0.0 16.670721 34.194748 21.724484
1692 1 2 0.0 13.168903 34.959990 19.856023
1693 1 1 0.0 9.595904 29.245851 19.318281
1694 1 1 0.0 12.165992 31.054474 21.338065
1695 1 1 0.0 15.518779 25.778765 22.689984
1696 1 1 0.0 15.220818 28.908100 21.273892
1697 1 2 0.0 7.652106 29.670118 18.839012
1698 1 2 0.0 14.935345 29.293086 19.350705
1699 1 2 0.0 10.008244 28.072295 20.716167
1700 1 2 0.0 14.938501 27.312041 21.677086
1701 1 2 0.0 17.074728 29.023494 22.275998
1702 1 2 0.0 10.095855 28.720043 17.717423
1703 1 2 0.0 13.847380 29.928901 21.825682
1704 1 2 0.0 10.678514 30.496827 19.956428
1705 1 1 0.0 7.298472 24.680321 19.295427
1706 1 1 0.0 9.581245 26.648658 21.362809
1707 1 1 0.0 12.501294 21.637919 22.671887
1708 1 1 0.0 12.407423 24.628114 21.283667
1709 1 2 0.0 5.541140 25.023021 18.806609
1710 1 2 0.0 12.283780 24.906702 19.360402
1711 1 2 0.0 7.560233 23.587522 20.673024
1712 1 2 0.0 12.070939 23.067281 21.669164
1713 1 2 0.0 14.091599 24.858650 22.296397
1714 1 2 0.0 7.866655 24.111490 17.697832
1715 1 2 0.0 11.102349 25.613624 21.842126
1716 1 2 0.0 8.280434 25.984725 19.961211
1717 1 1 0.0 5.092230 20.068343 19.178911
1718 1 1 0.0 7.090066 22.188613 21.288574
1719 1 1 0.0 9.532133 17.461572 22.598912
1720 1 1 0.0 9.649501 20.311830 21.232768
1721 1 2 0.0 3.538860 20.325639 18.664603
1722 1 2 0.0 9.674541 20.494850 19.324890
1723 1 2 0.0 5.206627 19.050083 20.530945
1724 1 2 0.0 9.256281 18.786651 21.602744
1725 1 2 0.0 11.158714 20.658149 22.260408
1726 1 2 0.0 5.706554 19.469157 17.607848
1727 1 2 0.0 8.434624 21.249552 21.774901
1728 1 2 0.0 5.974358 21.423845 19.870687
1729 1 1 0.0 8.505097 35.473078 22.794596
1730 1 1 0.0 11.507327 37.242767 24.699637
1731 1 1 0.0 15.432030 32.153804 26.208324
1732 1 1 0.0 14.859917 35.196667 24.701670
1733 1 2 0.0 6.322914 35.841323 22.314639
1734 1 2 0.0 14.335008 35.577808 22.786933
1735 1 2 0.0 9.123620 34.359608 24.226690
1736 1 2 0.0 14.636580 33.650545 25.161334
1737 1 2 0.0 16.980871 35.296573 25.668875
1738 1 2 0.0 8.889137 34.957583 21.216923
1739 1 2 0.0 13.403597 36.171376 25.218670
1740 1 2 0.0 9.743848 36.694003 23.368935
1741 1 1 0.0 6.082426 31.022581 22.921663
1742 1 1 0.0 8.759612 32.986984 24.922282
1743 1 1 0.0 12.341500 28.106456 26.294767
1744 1 1 0.0 11.926920 31.036178 24.862924
1745 1 2 0.0 4.073694 31.314535 22.443308
1746 1 2 0.0 11.567107 31.295385 22.936916
1747 1 2 0.0 6.566597 29.989606 24.321854
1748 1 2 0.0 11.675300 29.509857 25.277858
1749 1 2 0.0 13.870714 31.262423 25.853311
1750 1 2 0.0 6.554594 30.442292 21.321436
1751 1 2 0.0 10.517081 31.995810 25.412866
1752 1 2 0.0 7.196824 32.313641 23.550634
1753 1 1 0.0 3.824265 26.488291 22.879759
1754 1 1 0.0 6.180825 28.633295 24.966228
1755 1 1 0.0 9.365799 23.974750 26.250804
1756 1 1 0.0 9.121084 26.792481 24.885095
1757 1 2 0.0 2.007153 26.703232 22.387759
1758 1 2 0.0 8.915111 26.943224 22.963099
1759 1 2 0.0 4.174395 25.527653 24.244281
1760 1 2 0.0 8.836077 25.286412 25.259417
1761 1 2 0.0 10.881994 27.142090 25.901460
1762 1 2 0.0 4.363241 25.856998 21.280076
1763 1 2 0.0 7.780838 27.725391 25.444422
1764 1 2 0.0 4.816846 27.844718 23.559289
1765 1 1 0.0 1.733311 21.868833 22.666115
1766 1 1 0.0 3.768222 24.183289 24.834381
1767 1 1 0.0 6.507491 19.756802 26.073523
1768 1 1 0.0 6.441070 22.466451 24.769648
1769 1 2 0.0 0.126934 22.005728 22.144318
1770 1 2 0.0 6.377402 22.522300 22.867211
1771 1 2 0.0 1.951937 20.971003 23.988814
1772 1 2 0.0 6.120010 20.979465 25.104795
1773 1 2 0.0 8.011868 22.937590 25.816513
1774 1 2 0.0 2.317763 21.200389 21.090108
1775 1 2 0.0 5.192946 23.361335 25.315419
1776 1 2 0.0 2.603365 23.287523 23.395472
1777 1 1 0.0 5.011398 37.149572 26.340211
1778 1 1 0.0 8.144383 39.038235 28.186566
1779 1 1 0.0 12.261748 34.397159 29.762246
1780 1 1 0.0 11.604657 37.203878 28.200542
1781 1 2 0.0 2.762149 37.384373 25.865322
1782 1 2 0.0 11.016111 37.461968 26.278707
1783 1 2 0.0 5.685102 36.187801 27.790140
1784 1 2 0.0 11.393765 35.749013 28.695637
1785 1 2 0.0 13.822988 37.399826 29.139891
1786 1 2 0.0 5.370738 36.589751 24.765928
1787 1 2 0.0 10.111449 38.108359 28.712856
1788 1 2 0.0 6.298632 38.389986 26.881848
1789 1 1 0.0 2.565789 32.793111 26.525044
1790 1 1 0.0 5.342758 34.901423 28.506498
1791 1 1 0.0 9.161600 30.430581 29.899549
1792 1 1 0.0 8.623103 33.149096 28.451956
1793 1 2 0.0 0.492966 32.953944 26.047604
1794 1 2 0.0 8.188830 33.280998 26.523128
1795 1 2 0.0 3.124265 31.905688 27.927540
1796 1 2 0.0 8.406539 31.699472 28.878631
1797 1 2 0.0 10.653064 33.482138 29.430624
1798 1 2 0.0 3.010735 32.159225 24.925449
1799 1 2 0.0 7.176499 34.046428 29.000050
1800 1 2 0.0 3.707975 34.116951 27.144839
1801 1 1 0.0 0.359482 28.314763 26.464090
1802 1 1 0.0 2.783878 30.623923 28.569648
1803 1 1 0.0 6.243844 26.330013 29.829720
1804 1 1 0.0 5.839808 28.964584 28.486524
1805 1 2 0.0 -1.517423 28.403784 25.968910
1806 1 2 0.0 5.550434 28.986381 26.565797
1807 1 2 0.0 0.801404 27.490812 27.815538
1808 1 2 0.0 5.610995 27.519968 28.849671
1809 1 2 0.0 7.674565 29.428594 29.506523
1810 1 2 0.0 0.869285 27.621852 24.862321
1811 1 2 0.0 4.463786 29.844222 29.046717
1812 1 2 0.0 1.359102 29.715730 27.157367
1813 1 1 0.0 -1.603602 23.712529 26.153319
1814 1 1 0.0 0.463797 26.208021 28.380188
1815 1 1 0.0 3.512550 22.092461 29.548133
1816 1 1 0.0 3.252685 24.651704 28.306527
1817 1 2 0.0 -3.263855 23.731505 25.624034
1818 1 2 0.0 3.098286 24.579702 26.409532
1819 1 2 0.0 -1.276374 22.939209 27.446684
1820 1 2 0.0 3.008859 23.209329 28.606847
1821 1 2 0.0 4.883009 25.242377 29.372618
1822 1 2 0.0 -1.049513 22.975630 24.572367
1823 1 2 0.0 1.970466 25.503536 28.855938
1824 1 2 0.0 -0.748783 25.186746 26.920257
1825 1 1 0.0 1.501248 38.793770 29.885825
1826 1 1 0.0 4.755879 40.789604 31.673496
1827 1 1 0.0 9.072011 36.614029 33.316169
1828 1 1 0.0 8.323560 39.171603 31.699414
1829 1 2 0.0 -0.813344 38.895588 29.416005
1830 1 2 0.0 7.672323 39.304759 29.770481
1831 1 2 0.0 2.231712 37.989336 31.353589
1832 1 2 0.0 8.129279 37.815517 32.229940
1833 1 2 0.0 10.634576 39.460063 32.610907
1834 1 2 0.0 1.837105 38.190754 28.314933
1835 1 2 0.0 6.793203 40.003993 32.207042
1836 1 2 0.0 2.832333 40.046203 30.394760
1837 1 1 0.0 -0.954147 34.557162 30.128426
1838 1 1 0.0 1.914942 36.796948 32.090715
1839 1 1 0.0 5.978987 32.751012 33.504332
1840 1 1 0.0 5.308994 35.246286 32.040987
1841 1 2 0.0 -3.090193 34.588101 29.651900
1842 1 2 0.0 4.800171 35.249357 30.109339
1843 1 2 0.0 -0.318784 33.820486 31.533227
1844 1 2 0.0 5.132013 33.880585 32.479403
1845 1 2 0.0 7.421276 35.681932 33.007938
1846 1 2 0.0 -0.535826 33.870632 28.529462
1847 1 2 0.0 3.825192 36.080055 32.587234
1848 1 2 0.0 0.211638 35.906140 30.739044
1849 1 1 0.0 -3.095451 30.160571 30.048421
1850 1 1 0.0 -0.609435 32.620823 32.173068
1851 1 1 0.0 3.135916 28.704370 33.408636
1852 1 1 0.0 2.563784 31.144714 32.087953
1853 1 2 0.0 -5.032130 30.125668 29.550061
1854 1 2 0.0 2.189885 31.036397 30.168495
1855 1 2 0.0 -2.558149 29.478059 31.386794
1856 1 2 0.0 2.396054 29.768482 32.439924
1857 1 2 0.0 4.469390 31.718276 33.111586
1858 1 2 0.0 -2.614838 29.406820 28.444565
1859 1 2 0.0 1.151384 31.970419 32.649013
1860 1 2 0.0 -2.092533 31.598267 30.755445
1861 1 1 0.0 -4.917517 25.601376 29.640524
1862 1 1 0.0 -2.822397 28.264209 31.925996
1863 1 1 0.0 0.548379 24.470004 33.022743
1864 1 1 0.0 0.085097 26.868742 31.843407
1865 1 2 0.0 -6.632475 25.505198 29.103750
1866 1 2 0.0 -0.162194 26.668079 29.951854
1867 1 2 0.0 -4.477092 24.956874 30.904554
1868 1 2 0.0 -0.076244 25.477612 32.108899
1869 1 2 0.0 1.772796 27.573437 32.928722
1870 1 2 0.0 -4.394421 24.796622 28.054626
1871 1 2 0.0 -1.231989 27.677461 32.396456
1872 1 2 0.0 -4.081226 27.123137 30.445042
1873 1 1 0.0 -2.026412 40.403589 33.431439
1874 1 1 0.0 1.340119 42.493943 35.160425
1875 1 1 0.0 5.861758 38.802974 36.870091
1876 1 1 0.0 5.015172 41.097622 35.198285
1877 1 2 0.0 -4.404580 40.372777 32.966688
1878 1 2 0.0 4.302341 41.104016 33.262255
1879 1 2 0.0 -1.237527 39.762464 34.917038
1880 1 2 0.0 4.841916 39.848282 35.764243
1881 1 2 0.0 7.413951 41.474909 36.081922
1882 1 2 0.0 -1.712655 39.758772 31.863938
1883 1 2 0.0 3.447232 41.855704 35.701228
1884 1 2 0.0 -0.656425 41.660057 33.907672
1885 1 1 0.0 -4.477598 36.314315 33.731808
1886 1 1 0.0 -1.524564 38.672303 35.674932
1887 1 1 0.0 2.793513 35.067548 37.109115
1888 1 1 0.0 1.984014 37.326862 35.630019
1889 1 2 0.0 -6.675948 36.216645 33.256196
1890 1 2 0.0 1.400588 37.199559 33.695551
1891 1 2 0.0 -3.762597 35.733913 35.138914
1892 1 2 0.0 1.851401 36.052721 36.080176
1893 1 2 0.0 4.174572 37.860708 36.585251
1894 1 2 0.0 -4.085246 35.576191 32.133476
1895 1 2 0.0 0.462493 38.095634 36.174418
1896 1 2 0.0 -3.292673 37.680285 34.333250
1897 1 1 0.0 -6.539901 32.026963 33.632752
1898 1 1 0.0 -3.998871 34.624411 35.776488
1899 1 1 0.0 0.042782 31.098864 36.987552
1900 1 1 0.0 -0.706691 33.333323 35.689381
1901 1 2 0.0 -8.536289 31.870351 33.131211
1902 1 2 0.0 -1.166321 33.093633 33.771192
1903 1 2 0.0 -5.903381 31.490976 34.958051
1904 1 2 0.0 -0.808182 32.032784 36.030177
1905 1 2 0.0 1.266595 34.011309 36.716649
1906 1 2 0.0 -6.088554 31.213075 32.026809
1907 1 2 0.0 -2.156079 34.104441 36.251308
1908 1 2 0.0 -5.537660 33.493079 34.353523
1909 1 1 0.0 -8.206949 27.538288 33.127728
1910 1 1 0.0 -6.089147 30.353944 35.471803
1911 1 1 0.0 -2.383346 26.891714 36.497353
1912 1 1 0.0 -3.060523 29.119351 35.380287
1913 1 2 0.0 -9.977403 27.330102 32.583465
1914 1 2 0.0 -3.403062 28.789051 33.494175
1915 1 2 0.0 -7.648404 27.027248 34.362424
1916 1 2 0.0 -3.133851 27.786447 35.610950
1917 1 2 0.0 -1.317740 29.932222 36.484827
1918 1 2 0.0 -7.715656 26.666040 31.536885
1919 1 2 0.0 -4.413174 29.885085 35.936974
1920 1 2 0.0 -7.392676 29.099123 33.969826
1921 1 1 0.0 -5.573108 41.976036 36.977054
1922 1 1 0.0 -2.105330 44.147057 38.647354
1923 1 1 0.0 2.629444 40.961888 40.424014
1924 1 1 0.0 1.677382 42.978709 38.697157
1925 1 2 0.0 -8.013006 41.812809 36.517371
1926 1 2 0.0 0.904258 42.856567 36.754029
1927 1 2 0.0 -4.724014 41.504673 38.480487
1928 1 2 0.0 1.529926 41.844724 39.298546
1929 1 2 0.0 4.158659 43.440909 39.552938
1930 1 2 0.0 -5.279829 41.291169 35.412944
1931 1 2 0.0 0.071200 43.659788 39.195414
1932 1 2 0.0 -4.169616 43.227825 37.420584
1933 1 1 0.0 -8.004867 38.063969 37.335190
1934 1 1 0.0 -4.976803 40.525687 39.259148
1935 1 1 0.0 -0.395039 37.379895 40.713897
1936 1 1 0.0 -1.352679 39.389539 39.219051
1937 1 2 0.0 -10.264540 37.839058 36.860492
1938 1 2 0.0 -2.010717 39.130280 37.281762
1939 1 2 0.0 -7.207241 37.645851 38.744600
1940 1 2 0.0 -1.435762 38.215196 39.680948
1941 1 2 0.0 0.911814 40.016864 40.162564
1942 1 2 0.0 -7.637753 37.275434 35.737489
1943 1 2 0.0 -2.912559 40.091641 39.761602
1944 1 2 0.0 -6.805661 39.438064 37.927455
1945 1 1 0.0 -9.972953 33.915731 37.217084
1946 1 1 0.0 -7.384086 36.635283 39.379907
1947 1 1 0.0 -3.034446 33.515010 40.566468
1948 1 1 0.0 -3.971189 35.531067 39.290810
1949 1 2 0.0 -12.028930 33.639931 36.712362
1950 1 2 0.0 -4.517868 35.158613 37.373890
1951 1 2 0.0 -9.233028 33.531829 38.529308
1952 1 2 0.0 -4.000894 34.314083 39.620430
1953 1 2 0.0 -1.933640 36.307951 40.321712
1954 1 2 0.0 -9.551031 33.042320 35.609053
1955 1 2 0.0 -5.458186 36.246948 39.853604
1956 1 2 0.0 -8.975707 35.401246 37.951600
1957 1 1 0.0 -11.469769 29.527450 36.614932
1958 1 1 0.0 -9.334721 32.480218 39.017611
1959 1 1 0.0 -5.280179 29.360918 39.971963
1960 1 1 0.0 -6.182476 31.406127 38.917166
1961 1 2 0.0 -13.296457 29.210930 36.063181
1962 1 2 0.0 -6.622889 30.944993 37.036496
1963 1 2 0.0 -10.787714 29.154987 37.820294
1964 1 2 0.0 -6.161859 30.138938 39.113002
1965 1 2 0.0 -4.387103 32.320841 40.040932
1966 1 2 0.0 -11.011325 28.587752 35.019145
1967 1 2 0.0 -7.571294 32.129250 39.477492
1968 1 2 0.0 -10.681289 31.118185 37.494611
1969 1 1 0.0 -9.141009 43.506851 40.522668
1970 1 1 0.0 -5.583932 45.742970 42.134284
1971 1 1 0.0 -0.627135 43.087773 43.977937
1972 1 1 0.0 -1.692815 44.810270 42.196029
1973 1 2 0.0 -11.640688 43.211221 40.068055
1974 1 2 0.0 -2.524650 44.557888 40.245803
1975 1 2 0.0 -8.229744 43.212390 42.043936
1976 1 2 0.0 -1.809184 43.801166 42.832849
1977 1 2 0.0 0.865207 45.353139 43.023954
1978 1 2 0.0 -8.866252 42.784192 38.961949
1979 1 2 0.0 -3.338223 45.410973 42.689600
1980 1 2 0.0 -7.710053 44.744204 40.933496
1981 1 1 0.0 -11.536391 39.805271 40.938572
1982 1 1 0.0 -8.443262 42.354537 42.843365
1983 1 1 0.0 -3.586976 39.687634 44.318680
1984 1 1 0.0 -4.702281 41.432487 42.808083
1985 1 2 0.0 -13.856308 39.454606 40.464788
1986 1 2 0.0 -5.434878 41.039634 40.867973
1987 1 2 0.0 -10.652813 39.556125 42.350287
1988 1 2 0.0 -4.730140 40.367029 43.281721
1989 1 2 0.0 -2.368615 42.148121 43.739877
1990 1 2 0.0 -11.193674 38.967695 39.341502
1991 1 2 0.0 -6.301331 42.065911 43.348786
1992 1 2 0.0 -10.328324 41.177595 41.521660
1993 1 1 0.0 -13.393309 35.829424 40.801415
1994 1 1 0.0 -10.764586 38.654290 42.983327
1995 1 1 0.0 -6.094179 35.954971 44.145384
1996 1 1 0.0 -7.229099 37.738880 42.892238
1997 1 2 0.0 -15.508668 35.437399 40.293512
1998 1 2 0.0 -7.864302 37.232089 40.976588
1999 1 2 0.0 -12.545287 35.603849 42.100564
2000 1 2 0.0 -7.180914 36.614100 43.210684
2001 1 2 0.0 -5.131057 38.608564 43.926775
2002 1 2 0.0 -13.001085 34.896976 39.191298
2003 1 2 0.0 -8.754345 38.398879 43.455899
2004 1 2 0.0 -12.405858 37.324305 41.549678
2005 1 1 0.0 -14.702941 31.574817 40.102136
2006 1 1 0.0 -12.556646 34.647295 42.563418
2007 1 1 0.0 -8.138638 31.882359 43.446573
2008 1 1 0.0 -9.278343 33.732770 42.454046
2009 1 2 0.0 -16.586530 31.154401 39.542896
2010 1 2 0.0 -9.819636 33.139294 40.578818
2011 1 2 0.0 -13.891321 31.346722 41.278163
2012 1 2 0.0 -9.157269 32.539507 42.615054
2013 1 2 0.0 -7.433158 34.742302 43.597037
2014 1 2 0.0 -14.278735 30.567267 38.501404
2015 1 2 0.0 -10.703796 34.414001 43.018010
2016 1 2 0.0 -13.944438 33.185280 41.019396
2017 1 1 0.0 39.557168 12.749876 1.326233
2018 1 1 0.0 41.257841 12.806868 3.700755
2019 1 1 0.0 42.024953 4.341675 4.673495
2020 1 1 0.0 42.878382 8.742147 3.607248
2021 1 2 0.0 38.327715 14.519303 0.805725
2022 1 2 0.0 43.161487 9.993629 1.749293
2023 1 2 0.0 39.326170 10.618382 2.615648
2024 1 2 0.0 42.270961 6.812757 3.783461
2025 1 2 0.0 43.853982 7.711623 4.797301
2026 1 2 0.0 40.126929 12.480739 199.721433
2027 1 2 0.0 42.071828 10.451016 4.161733
2028 1 2 0.0 40.409182 13.393698 2.162191
2029 1 1 0.0 36.881575 8.916508 0.991160
2030 1 1 0.0 38.546180 8.950075 3.145100
2031 1 1 0.0 38.821209 1.062796 4.353058
2032 1 1 0.0 40.028105 5.095939 3.047220
2033 1 2 0.0 35.748306 10.584085 0.505491
2034 1 2 0.0 40.513056 6.235661 1.143776
2035 1 2 0.0 36.426231 6.948982 2.372912
2036 1 2 0.0 39.257298 3.333138 3.368230
2037 1 2 0.0 40.953161 4.096647 4.131358
2038 1 2 0.0 37.547639 8.644892 199.385883
2039 1 2 0.0 39.235900 6.728191 3.611946
2040 1 2 0.0 37.778471 9.505625 1.693543
2041 1 1 0.0 33.829812 5.392193 1.101661
2042 1 1 0.0 35.475307 5.422545 3.035422
2043 1 1 0.0 35.268975 -1.819181 4.516026
2044 1 1 0.0 36.808653 1.826889 2.970218
2045 1 2 0.0 32.795001 6.933095 0.635106
2046 1 2 0.0 37.468156 2.853250 1.038069
2047 1 2 0.0 33.166124 3.599020 2.570779
2048 1 2 0.0 35.882253 0.235025 3.433943
2049 1 2 0.0 37.691016 0.879839 3.957508
2050 1 2 0.0 34.567688 5.127368 199.518674
2051 1 2 0.0 36.042207 3.359081 3.522609
2052 1 2 0.0 34.776080 5.933259 1.671218
2053 1 1 0.0 30.395714 2.181997 1.665035
2054 1 1 0.0 32.051059 2.218929 3.364474
2055 1 1 0.0 31.360472 -4.295392 5.173193
2056 1 1 0.0 33.223908 -1.068971 3.371163
2057 1 2 0.0 29.460340 3.572004 1.203145
2058 1 2 0.0 34.032321 -0.158850 1.425192
2059 1 2 0.0 29.535094 0.578034 3.222408
2060 1 2 0.0 32.142571 -2.478146 3.984934
2061 1 2 0.0 34.076006 -1.948126 4.264227
2062 1 2 0.0 31.179563 1.934134 0.128585
2063 1 2 0.0 32.495330 0.339155 3.887826
2064 1 2 0.0 31.403235 2.675560 2.093746
2065 1 1 0.0 36.685287 15.356991 4.871847
2066 1 1 0.0 38.626721 15.574827 7.187684
2067 1 1 0.0 39.611622 7.390208 8.227418
2068 1 1 0.0 40.402727 11.668466 7.106120
2069 1 2 0.0 35.345202 17.006544 4.356408
2070 1 2 0.0 40.597274 12.834404 5.241067
2071 1 2 0.0 36.518636 13.320691 6.179098
2072 1 2 0.0 39.781851 9.774091 7.317764
2073 1 2 0.0 41.538471 10.731683 8.268317
2074 1 2 0.0 37.214208 15.048283 3.270439
2075 1 2 0.0 39.543946 13.324434 7.655919
2076 1 2 0.0 37.636114 16.057912 5.675103
2077 1 1 0.0 33.863830 11.445511 4.594542
2078 1 1 0.0 35.735371 11.679316 6.729317
2079 1 1 0.0 36.243249 4.040733 7.957840
2080 1 1 0.0 37.364099 7.975743 6.636252
2081 1 2 0.0 32.630656 12.990354 4.109787
2082 1 2 0.0 37.754079 9.020870 4.729988
2083 1 2 0.0 33.483876 9.568832 5.978598
2084 1 2 0.0 36.595990 6.231395 6.969002
2085 1 2 0.0 38.434429 7.089126 7.708671
2086 1 2 0.0 34.486318 11.122018 2.989897
2087 1 2 0.0 36.525562 9.561589 7.199130
2088 1 2 0.0 34.839462 12.111681 5.287748
2089 1 1 0.0 30.731055 7.789803 4.685992
2090 1 1 0.0 32.547703 8.055419 6.638842
2091 1 1 0.0 32.581700 1.025165 8.094942
2092 1 1 0.0 34.015730 4.599458 6.571647
2093 1 2 0.0 29.608981 9.207637 4.216257
2094 1 2 0.0 34.576248 5.524319 4.640767
2095 1 2 0.0 30.151620 6.080827 6.142036
2096 1 2 0.0 33.106598 3.009134 7.024196
2097 1 2 0.0 35.026736 3.781182 7.562571
2098 1 2 0.0 31.423449 7.461892 3.100918
2099 1 2 0.0 33.209929 6.092626 7.124905
2100 1 2 0.0 31.735603 8.426393 5.269296
2101 1 1 0.0 27.281862 4.394057 5.152239
2102 1 1 0.0 29.068531 4.698723 6.910281
2103 1 1 0.0 28.620428 -1.649043 8.647803
2104 1 1 0.0 30.360877 1.536283 6.908043
2105 1 2 0.0 26.274050 5.663051 4.682861
2106 1 2 0.0 31.068455 2.340326 4.967513
2107 1 2 0.0 26.512984 2.864555 6.680278
2108 1 2 0.0 29.310939 0.110196 7.486985
2109 1 2 0.0 31.322503 0.800014 7.820331
2110 1 2 0.0 28.019319 4.072894 3.610845
2111 1 2 0.0 29.600854 2.913783 7.428344
2112 1 2 0.0 28.325550 5.001189 5.618531
2113 1 1 0.0 33.787724 17.932848 8.417462
2114 1 1 0.0 35.957625 18.301355 10.674613
2115 1 1 0.0 37.168730 10.412785 11.781340
2116 1 1 0.0 37.887206 14.555763 10.604991
2117 1 2 0.0 32.339639 19.463465 7.907091
2118 1 2 0.0 37.992681 15.632551 8.732841
2119 1 2 0.0 33.688659 15.997696 9.742547
2120 1 2 0.0 37.259428 12.703870 10.852067
2121 1 2 0.0 39.176431 13.709519 11.739333
2122 1 2 0.0 34.276373 17.584217 6.819444
2123 1 2 0.0 36.977091 16.158432 11.150105
2124 1 2 0.0 34.830680 18.684021 9.188015
2125 1 1 0.0 30.840932 13.968242 8.197924
2126 1 1 0.0 32.908275 14.390787 10.313533
2127 1 1 0.0 33.661167 7.015050 11.562623
2128 1 1 0.0 34.684212 10.840002 10.225284
2129 1 2 0.0 29.509204 15.391620 7.714083
2130 1 2 0.0 34.978260 11.788299 8.316199
2131 1 2 0.0 30.540440 12.187462 9.584285
2132 1 2 0.0 33.925821 9.121258 10.569775
2133 1 2 0.0 35.894150 10.062053 11.285985
2134 1 2 0.0 31.420544 13.593539 6.593910
2135 1 2 0.0 33.799208 12.378788 10.786314
2136 1 2 0.0 31.888960 14.704205 8.881953
2137 1 1 0.0 27.647675 10.206128 8.270323
2138 1 1 0.0 29.625499 10.694185 10.242262
2139 1 1 0.0 29.915739 3.888225 11.673858
2140 1 1 0.0 31.230912 7.379960 10.173076
2141 1 2 0.0 26.438406 11.502495 7.797408
2142 1 2 0.0 31.691037 8.202458 8.243465
2143 1 2 0.0 27.157396 8.585499 9.713293
2144 1 2 0.0 30.346531 5.798010 10.614449
2145 1 2 0.0 32.365892 6.685643 11.167634
2146 1 2 0.0 28.295418 9.816816 6.683162
2147 1 2 0.0 30.384594 8.833195 10.727200
2148 1 2 0.0 28.704506 10.930570 8.867374
2149 1 1 0.0 24.203915 6.649821 8.639443
2150 1 1 0.0 26.113091 7.208070 10.456088
2151 1 1 0.0 25.927137 1.038358 12.122413
2152 1 1 0.0 27.529936 4.172947 10.444922
2153 1 2 0.0 23.122451 7.799734 8.162577
2154 1 2 0.0 28.134822 4.871420 8.509835
2155 1 2 0.0 23.532514 5.198025 10.138147
2156 1 2 0.0 26.519344 2.736463 10.989037
2157 1 2 0.0 28.597419 3.573943 11.376436
2158 1 2 0.0 24.895945 6.258059 7.093104
2159 1 2 0.0 26.736279 5.518655 10.968862
2160 1 2 0.0 25.278118 7.362434 9.143315
2161 1 1 0.0 30.866329 20.479696 11.963076
2162 1 1 0.0 33.253222 20.989365 14.161542
2163 1 1 0.0 34.698704 13.411539 15.335263
2164 1 1 0.0 35.335021 17.407172 14.103863
2165 1 2 0.0 29.312597 21.892130 11.457774
2166 1 2 0.0 35.351121 18.391671 12.224615
2167 1 2 0.0 30.837831 18.651192 13.305996
2168 1 2 0.0 34.706395 15.604653 14.386370
2169 1 2 0.0 36.771651 16.648570 15.210349
2170 1 2 0.0 31.315383 20.091007 10.368449
2171 1 2 0.0 34.374157 18.955938 14.644291
2172 1 2 0.0 31.995188 21.274744 12.700927
2173 1 1 0.0 27.813253 16.485154 11.801306
2174 1 1 0.0 30.066036 17.085739 13.897750
2175 1 1 0.0 31.075299 9.986044 15.167406
2176 1 1 0.0 31.989720 13.689965 13.814316
2177 1 2 0.0 26.384208 17.788226 11.318379
2178 1 2 0.0 32.187022 14.539450 11.902411
2179 1 2 0.0 27.595999 14.804960 13.189972
2180 1 2 0.0 31.247508 12.003407 14.170547
2181 1 2 0.0 33.334079 13.017019 14.863298
2182 1 2 0.0 28.350665 16.059893 10.197923
2183 1 2 0.0 31.058029 15.180992 14.373498
2184 1 2 0.0 28.927783 17.284164 12.476159
2185 1 1 0.0 24.578564 12.639821 11.854654
2186 1 1 0.0 26.708317 13.338428 13.845681
2187 1 1 0.0 27.269342 6.768462 15.252774
2188 1 1 0.0 28.453547 10.167758 13.774504
2189 1 2 0.0 23.282223 13.816286 11.378558
2190 1 2 0.0 28.811955 10.887068 11.846162
2191 1 2 0.0 24.182012 11.111413 13.284549
2192 1 2 0.0 27.600788 8.600455 14.204703
2193 1 2 0.0 29.708205 9.592969 14.772697
2194 1 2 0.0 25.182331 12.190550 10.265407
2195 1 2 0.0 27.565686 11.580264 14.329496
2196 1 2 0.0 25.682118 13.445000 12.465452
2197 1 1 0.0 21.159288 8.946141 12.126647
2198 1 1 0.0 23.182836 9.744892 14.001896
2199 1 1 0.0 23.276758 3.763435 15.597024
2200 1 1 0.0 24.728509 6.838499 13.981802
2201 1 2 0.0 20.003179 9.978943 11.642292
2202 1 2 0.0 25.228868 7.431734 12.052156
2203 1 2 0.0 20.590730 7.575112 13.596017
2204 1 2 0.0 23.764542 5.397583 14.491089
2205 1 2 0.0 25.898440 6.371562 14.932541
2206 1 2 0.0 21.806563 8.486010 10.575363
2207 1 2 0.0 23.899385 8.151526 14.509381
2208 1 2 0.0 22.258779 9.756754 12.668100
2209 1 1 0.0 27.922376 22.999087 15.508690
2210 1 1 0.0 30.515344 23.640856 17.648472
2211 1 1 0.0 32.203242 16.387959 18.889185
2212 1 1 0.0 32.748403 20.224876 17.602735
2213 1 2 0.0 26.265149 24.293951 15.008457
2214 1 2 0.0 32.674980 21.114286 15.716389
2215 1 2 0.0 27.967249 21.282414 16.869445
2216 1 2 0.0 32.124632 18.478222 17.920673
2217 1 2 0.0 34.326773 19.551234 18.681364
2218 1 2 0.0 28.332600 22.570368 13.917454
2219 1 2 0.0 31.737143 21.718973 18.138477
2220 1 2 0.0 29.131226 23.831949 16.213839
2221 1 1 0.0 24.781047 18.996557 15.404687
2222 1 1 0.0 27.209439 19.765027 17.481967
2223 1 1 0.0 28.485884 12.953923 18.772188
2224 1 1 0.0 29.281512 16.526502 17.403348
2225 1 2 0.0 23.255846 20.180403 14.922675
2226 1 2 0.0 29.381361 17.275376 15.488622
2227 1 2 0.0 24.650605 17.421383 16.795659
2228 1 2 0.0 28.561553 14.878317 17.771320
2229 1 2 0.0 30.755440 15.955135 18.440611
2230 1 2 0.0 25.276921 18.521383 13.801936
2231 1 2 0.0 28.302846 17.969030 17.960682
2232 1 2 0.0 25.956497 19.852220 16.070364
2233 1 1 0.0 21.522960 15.089953 15.438985
2234 1 1 0.0 23.795894 15.987864 17.449101
2235 1 1 0.0 24.641286 9.664803 18.831691
2236 1 1 0.0 25.683183 12.962409 17.375933
2237 1 2 0.0 20.139713 16.148064 14.959709
2238 1 2 0.0 25.938608 13.577732 15.448860
2239 1 2 0.0 21.224478 13.657454 16.855806
2240 1 2 0.0 24.868489 11.415634 17.794956
2241 1 2 0.0 27.053480 12.502982 18.377760
2242 1 2 0.0 22.083308 14.581986 13.847651
2243 1 2 0.0 24.752850 14.333475 17.931791
2244 1 2 0.0 22.667981 15.969144 16.063529
2245 1 1 0.0 18.146200 11.280848 15.613851
2246 1 1 0.0 20.276459 12.307764 17.547703
2247 1 1 0.0 20.666609 6.523835 19.071634
2248 1 1 0.0 21.954798 9.531182 17.518681
2249 1 2 0.0 16.914621 12.198554 15.122008
2250 1 2 0.0 22.348805 10.019381 15.594477
2251 1 2 0.0 17.685599 9.993527 17.053887
2252 1 2 0.0 21.044271 8.091411 17.993140
2253 1 2 0.0 23.223952 9.191406 18.488646
2254 1 2 0.0 18.749175 10.754230 14.057622
2255 1 2 0.0 21.088639 10.810843 18.049899
2256 1 2 0.0 19.266051 12.182402 16.192885
2257 1 1 0.0 24.956685 25.492021 19.054305
2258 1 1 0.0 27.745162 26.257103 21.135401
2259 1 1 0.0 29.683482 19.343045 22.443108
2260 1 1 0.0 30.128842 23.010334 21.101607
2261 1 2 0.0 23.197971 26.669818 18.559141
2262 1 2 0.0 29.965874 23.802100 19.208163
2263 1 2 0.0 25.077613 23.892154 20.432894
2264 1 2 0.0 29.515401 21.325773 21.454976
2265 1 2 0.0 31.843570 22.419118 22.152380
2266 1 2 0.0 25.328927 25.023434 17.466459
2267 1 2 0.0 29.067353 24.448857 21.632663
2268 1 2 0.0 26.239814 26.356838 19.726751
2269 1 1 0.0 21.744481 21.502651 19.008069
2270 1 1 0.0 24.338987 22.429200 21.066183
2271 1 1 0.0 25.893079 15.918826 22.376971
2272 1 1 0.0 26.560181 19.350194 20.992380
2273 1 2 0.0 20.124229 22.568298 18.526971
2274 1 2 0.0 26.561950 19.996786 19.074834
2275 1 2 0.0 21.704293 20.036771 20.401345
2276 1 2 0.0 25.868291 17.746305 21.372092
2277 1 2 0.0 28.159054 18.877146 22.017924
2278 1 2 0.0 22.199474 20.978211 17.405949
2279 1 2 0.0 25.534194 20.743447 21.547866
2280 1 2 0.0 22.975464 22.408801 19.664569
2281 1 1 0.0 18.480370 17.555926 19.023317
2282 1 1 0.0 20.888066 18.642313 21.052521
2283 1 1 0.0 22.030750 12.576527 22.410607
2284 1 1 0.0 22.919516 15.763615 20.977361
2285 1 2 0.0 17.010424 18.497232 18.540859
2286 1 2 0.0 23.070728 16.274166 19.051558
2287 1 2 0.0 18.284160 16.222906 20.427063
2288 1 2 0.0 22.149045 14.242989 21.385209
2289 1 2 0.0 24.401586 15.415565 21.982823
2290 1 2 0.0 18.997768 16.990392 17.429895
2291 1 2 0.0 21.945854 17.092592 21.534087
2292 1 2 0.0 19.661797 18.502652 19.661607
2293 1 1 0.0 15.163502 13.652546 19.101055
2294 1 1 0.0 17.393125 14.895775 21.093511
2295 1 1 0.0 18.094888 9.317976 22.546244
2296 1 1 0.0 19.207605 12.249821 21.055561
2297 1 2 0.0 13.855757 14.457228 18.601723
2298 1 2 0.0 19.493425 12.633086 19.136799
2299 1 2 0.0 14.815818 12.451799 20.511757
2300 1 2 0.0 18.357014 10.816512 21.495192
2301 1 2 0.0 20.572873 12.032492 22.044750
2302 1 2 0.0 15.722456 13.061052 17.539882
2303 1 2 0.0 18.303040 13.495595 21.590417
2304 1 2 0.0 16.298978 14.638255 19.717670
2305 1 1 0.0 21.969701 27.959037 22.599919
2306 1 1 0.0 24.943288 28.838777 24.622330
2307 1 1 0.0 27.140111 22.277400 25.997030
2308 1 1 0.0 27.477224 25.764414 24.600478
2309 1 2 0.0 20.111404 29.020178 22.109824
2310 1 2 0.0 27.224794 26.456159 22.699937
2311 1 2 0.0 22.169296 26.480831 23.996344
2312 1 2 0.0 26.879457 24.148018 24.989279
2313 1 2 0.0 29.323104 25.253187 25.623396
2314 1 2 0.0 22.304889 27.450867 21.015464
2315 1 2 0.0 26.365513 27.146324 25.126849
2316 1 2 0.0 23.321497 28.850052 23.239663
2317 1 1 0.0 18.703642 24.003545 22.611451
2318 1 1 0.0 21.454943 25.078544 24.650400
2319 1 1 0.0 23.296981 18.880837 25.981753
2320 1 1 0.0 23.826079 22.161387 24.581412
2321 1 2 0.0 16.989412 24.951985 22.131267
2322 1 2 0.0 23.729204 22.704118 22.661045
2323 1 2 0.0 18.757080 22.651143 24.007032
2324 1 2 0.0 23.167922 20.607561 24.972865
2325 1 2 0.0 25.545413 21.783498 25.595237
2326 1 2 0.0 19.118415 23.430494 21.009962
2327 1 2 0.0 22.752372 23.504542 25.135050
2328 1 2 0.0 19.984875 24.954133 23.258775
2329 1 1 0.0 15.450529 20.037417 22.607648
2330 1 1 0.0 17.984744 21.301677 24.655941
2331 1 1 0.0 19.437237 15.503197 25.989523
2332 1 1 0.0 20.162366 18.571200 24.578790
2333 1 2 0.0 13.894126 20.863491 22.122010
2334 1 2 0.0 20.208149 18.976198 22.654256
2335 1 2 0.0 15.360723 18.807390 23.998319
2336 1 2 0.0 19.442100 17.082186 24.975462
2337 1 2 0.0 21.752443 18.330644 25.587886
2338 1 2 0.0 15.925371 19.415341 21.012139
2339 1 2 0.0 19.144567 19.857485 25.136382
2340 1 2 0.0 16.663411 21.045340 23.259685
2341 1 1 0.0 12.210574 16.060479 22.588259
2342 1 1 0.0 14.532397 17.508448 24.639318
2343 1 1 0.0 15.560507 12.144902 26.020854
2344 1 1 0.0 16.486216 14.993719 24.592441
2345 1 2 0.0 10.826077 16.754292 22.081439
2346 1 2 0.0 16.661985 15.272063 22.679120
2347 1 2 0.0 11.980698 14.949151 23.969627
2348 1 2 0.0 15.701865 13.572027 24.997244
2349 1 2 0.0 17.944553 14.894233 25.600855
2350 1 2 0.0 12.725634 15.405506 21.022141
2351 1 2 0.0 15.542031 16.205219 25.130935
2352 1 2 0.0 13.357054 17.123714 23.242454
2353 1 1 0.0 18.961523 30.400256 26.145534
2354 1 1 0.0 22.109828 31.385992 28.109260
2355 1 1 0.0 24.573427 25.191286 29.550953
2356 1 1 0.0 24.793906 28.487465 28.099350
2357 1 2 0.0 17.005476 31.345071 25.660507
2358 1 2 0.0 24.452198 29.076947 26.191711
2359 1 2 0.0 19.242371 29.048526 27.559793
2360 1 2 0.0 24.217111 26.945254 28.523582
2361 1 2 0.0 26.765822 28.053847 29.094411
2362 1 2 0.0 19.260675 29.852906 24.564469
2363 1 2 0.0 23.631829 29.811582 28.621036
2364 1 2 0.0 20.376385 31.311721 26.752575
2365 1 1 0.0 15.658551 26.499263 26.214833
2366 1 1 0.0 18.557352 27.713109 28.234617
2367 1 1 0.0 20.697632 21.839993 29.586536
2368 1 1 0.0 21.079350 24.960219 28.170443
2369 1 2 0.0 13.851402 27.331471 25.735563
2370 1 2 0.0 20.883313 25.397572 26.247256
2371 1 2 0.0 15.808970 25.264504 27.612719
2372 1 2 0.0 20.460529 23.462164 28.573637
2373 1 2 0.0 22.914723 24.674379 29.172550
2374 1 2 0.0 16.033779 25.878274 24.613975
2375 1 2 0.0 19.957465 26.252402 28.722234
2376 1 2 0.0 16.984772 27.488264 26.852980
2377 1 1 0.0 12.433377 22.534353 26.191979
2378 1 1 0.0 15.085915 23.965943 28.259360
2379 1 1 0.0 16.860534 18.444627 29.568439
2380 1 1 0.0 17.411661 21.385093 28.180219
2381 1 2 0.0 10.790801 23.246815 25.703161
2382 1 2 0.0 17.350797 21.683747 26.256953
2383 1 2 0.0 12.454099 21.410832 27.569576
2384 1 2 0.0 16.747511 19.933085 28.565716
2385 1 2 0.0 19.106020 21.248192 29.192949
2386 1 2 0.0 12.865995 21.856679 24.594384
2387 1 2 0.0 16.348954 22.628115 28.738678
2388 1 2 0.0 13.672789 23.597168 26.857763
2389 1 1 0.0 9.287278 18.504478 26.075463
2390 1 1 0.0 11.694200 20.145701 28.185125
2391 1 1 0.0 13.062998 15.004203 29.495464
2392 1 1 0.0 13.790344 17.762593 28.129320
2393 1 2 0.0 7.825535 19.089687 25.561155
2394 1 2 0.0 13.854142 17.935952 26.221441
2395 1 2 0.0 9.180104 17.485431 27.427496
2396 1 2 0.0 13.078449 16.357602 28.499295
2397 1 2 0.0 15.338721 17.776379 29.156960
2398 1 2 0.0 9.758431 17.787238 24.504400
2399 1 2 0.0 12.805453 18.939554 28.671453
2400 1 2 0.0 10.440174 19.638657 26.767239
2401 1 1 0.0 15.931916 32.815393 29.691148
2402 1 1 0.0 19.244386 33.898316 31.596189
2403 1 1 0.0 21.983355 28.084636 33.104876
2404 1 1 0.0 22.078743 31.179345 31.598222
2405 1 2 0.0 13.879912 33.644133 29.211190
2406 1 2 0.0 21.648041 31.664416 29.683485
2407 1 2 0.0 16.296615 31.594990 31.123242
2408 1 2 0.0 21.528257 29.717382 32.057885
2409 1 2 0.0 24.171588 30.820974 32.565427
2410 1 2 0.0 16.196161 32.229393 28.113475
2411 1 2 0.0 20.866005 32.444332 32.115222
2412 1 2 0.0 17.404168 33.741478 30.265487
2413 1 1 0.0 12.609160 28.989749 29.818214
2414 1 1 0.0 15.646044 30.332709 31.818833
2415 1 1 0.0 18.095019 24.796285 33.191318
2416 1 1 0.0 18.319936 27.746634 31.759475
2417 1 2 0.0 10.710153 29.706695 29.339859
2418 1 2 0.0 18.024257 28.077130 29.833468
2419 1 2 0.0 12.859952 27.876842 31.218405
2420 1 2 0.0 17.746085 26.310088 32.174410
2421 1 2 0.0 20.266922 27.549732 32.749863
2422 1 2 0.0 12.945544 28.321524 28.217988
2423 1 2 0.0 17.149351 28.986904 32.309418
2424 1 2 0.0 13.975044 30.011062 30.447185
2425 1 1 0.0 9.429055 25.046905 29.776310
2426 1 1 0.0 12.191633 26.635169 31.862780
2427 1 1 0.0 14.300694 21.400864 33.147355
2428 1 1 0.0 14.667429 24.205324 31.781647
2429 1 2 0.0 7.700632 25.647447 29.284311
2430 1 2 0.0 14.498678 24.396821 29.859651
2431 1 2 0.0 9.564491 24.033459 31.140833
2432 1 2 0.0 14.065326 22.795734 32.155969
2433 1 2 0.0 16.462326 24.168216 32.798012
2434 1 2 0.0 9.819721 24.314508 28.176628
2435 1 2 0.0 13.559066 25.404537 32.340973
2436 1 2 0.0 10.690022 26.158244 30.455841
2437 1 1 0.0 6.393940 20.984941 29.562667
2438 1 1 0.0 8.878815 22.807841 31.730933
2439 1 1 0.0 10.602478 17.895981 32.970074
2440 1 1 0.0 11.120105 20.556558 31.666200
2441 1 2 0.0 4.854547 21.463959 29.040870
2442 1 2 0.0 11.069930 20.624788 29.763763
2443 1 2 0.0 6.414447 20.061104 30.885366
2444 1 2 0.0 10.486893 19.173356 32.001347
2445 1 2 0.0 12.755459 20.679007 32.713065
2446 1 2 0.0 6.821032 20.206485 27.986659
2447 1 2 0.0 10.093534 21.698831 32.211971
2448 1 2 0.0 7.548629 22.183427 30.292024
2449 1 1 0.0 12.880294 35.203733 33.236762
2450 1 1 0.0 16.346039 36.374742 35.083118
2451 1 1 0.0 19.369448 30.957059 36.658798
2452 1 1 0.0 19.331081 33.839414 35.097094
2453 1 2 0.0 10.734107 35.916567 32.761874
2454 1 2 0.0 18.811776 34.217990 33.175259
2455 1 2 0.0 13.331495 34.119621 34.686691
2456 1 2 0.0 18.812367 32.463899 35.592188
2457 1 2 0.0 21.539672 33.553905 36.036443
2458 1 2 0.0 13.110888 34.579753 31.662480
2459 1 2 0.0 18.067220 35.043744 35.609408
2460 1 2 0.0 14.404086 36.138430 33.778399
2461 1 1 0.0 9.555352 31.474858 33.421596
2462 1 1 0.0 12.720622 32.936912 35.403050
2463 1 1 0.0 15.489083 27.749658 36.796101
2464 1 1 0.0 15.547576 30.520376 35.348507
2465 1 2 0.0 7.565564 32.077526 32.944155
2466 1 2 0.0 15.151811 30.742551 33.419679
2467 1 2 0.0 9.910001 30.488127 34.824092
2468 1 2 0.0 15.024449 29.151199 35.775182
2469 1 2 0.0 17.601671 30.409250 36.327176
2470 1 2 0.0 9.853628 30.760141 31.822001
2471 1 2 0.0 14.327692 31.707707 35.896602
2472 1 2 0.0 10.955420 32.522211 34.041391
2473 1 1 0.0 6.437915 27.575501 33.360642
2474 1 1 0.0 9.302030 29.309501 35.466200
2475 1 1 0.0 11.758040 24.372190 36.726271
2476 1 1 0.0 11.929805 27.032022 35.383076
2477 1 2 0.0 4.624027 28.065921 32.865462
2478 1 2 0.0 11.651883 27.115516 33.462349
2479 1 2 0.0 6.692380 26.675814 34.712089
2480 1 2 0.0 11.395792 25.670368 35.746222
2481 1 2 0.0 13.821416 27.090765 36.403075
2482 1 2 0.0 6.786843 26.789198 31.758872
2483 1 2 0.0 10.775051 28.186898 35.943269
2484 1 2 0.0 7.715330 28.728826 34.053919
2485 1 1 0.0 3.531382 23.502870 33.049871
2486 1 1 0.0 6.086903 25.495589 35.276740
2487 1 1 0.0 8.179655 20.820857 36.444684
2488 1 1 0.0 8.476026 23.376130 35.203079
2489 1 2 0.0 1.914024 23.878308 32.520586
2490 1 2 0.0 8.309759 23.339002 33.306084
2491 1 2 0.0 3.684719 22.677285 34.343236
2492 1 2 0.0 7.927833 22.019892 35.503399
2493 1 2 0.0 10.195211 23.602521 36.269169
2494 1 2 0.0 3.914106 22.664086 31.468919
2495 1 2 0.0 7.406904 24.483685 35.752489
2496 1 2 0.0 4.683129 24.758860 33.816808
2497 1 1 0.0 9.805664 37.564069 36.782377
2498 1 1 0.0 13.413249 38.813592 38.570047
2499 1 1 0.0 16.730846 33.807800 40.212721
2500 1 1 0.0 16.549696 36.466473 38.595965
2501 1 2 0.0 7.567073 38.161076 36.312557
2502 1 2 0.0 15.942309 36.736513 36.667033
2503 1 2 0.0 10.346120 36.621415 38.250140
2504 1 2 0.0 16.068439 35.183857 39.126492
2505 1 2 0.0 18.868693 36.251389 39.507458
2506 1 2 0.0 10.004038 36.902952 35.211485
2507 1 2 0.0 15.234057 37.608384 39.103594
2508 1 2 0.0 11.374865 38.501077 37.291311
2509 1 1 0.0 6.496928 33.954348 37.024978
2510 1 1 0.0 9.780428 35.525000 38.987267
2511 1 1 0.0 12.879701 30.700006 40.400884
2512 1 1 0.0 12.761782 33.280970 38.937539
2513 1 2 0.0 4.417473 34.443751 36.548451
2514 1 2 0.0 12.265516 33.393352 37.005891
2515 1 2 0.0 6.959074 33.098311 38.429779
2516 1 2 0.0 12.295353 31.985244 39.375955
2517 1 2 0.0 14.918332 33.252353 39.904489
2518 1 2 0.0 6.757886 33.193942 35.426014
2519 1 2 0.0 11.491907 34.414220 39.483786
2520 1 2 0.0 7.925449 35.021178 37.635596
2521 1 1 0.0 3.460550 30.120864 36.944973
2522 1 1 0.0 6.417326 31.989177 39.069620
2523 1 1 0.0 9.233191 27.359149 40.305188
2524 1 1 0.0 9.199037 29.865430 38.984504
2525 1 2 0.0 1.561646 30.503106 36.446612
2526 1 2 0.0 8.810594 29.840023 37.065046
2527 1 2 0.0 3.838571 29.338805 38.283346
2528 1 2 0.0 8.739379 28.557430 39.336476
2529 1 2 0.0 11.183390 30.015933 40.008138
2530 1 2 0.0 3.767892 29.281417 35.341117
2531 1 2 0.0 7.997160 30.975454 39.545564
2532 1 2 0.0 4.749082 31.309350 37.651996
2533 1 1 0.0 0.700991 26.059951 36.537075
2534 1 1 0.0 3.319559 28.210140 38.822548
2535 1 1 0.0 5.795886 23.780024 39.919295
2536 1 1 0.0 5.859093 26.222272 38.739959
2537 1 2 0.0 -0.994548 26.334686 36.000301
2538 1 2 0.0 5.574447 26.079461 36.848405
2539 1 2 0.0 0.992571 25.335839 37.801106
2540 1 2 0.0 5.402472 24.898350 39.005450
2541 1 2 0.0 7.658823 26.547687 39.825274
2542 1 2 0.0 1.038859 25.161562 34.951178
2543 1 2 0.0 4.746650 27.295218 39.293007
2544 1 2 0.0 1.844864 27.366356 37.341593
2545 1 1 0.0 6.706541 39.894594 40.327991
2546 1 1 0.0 10.443729 41.212372 42.056977
2547 1 1 0.0 14.066206 36.635677 43.766643
2548 1 1 0.0 13.732694 39.058669 42.094837
2549 1 2 0.0 4.377350 40.375738 39.863240
2550 1 2 0.0 13.037903 39.218150 40.158806
2551 1 2 0.0 7.339160 39.098871 41.813590
2552 1 2 0.0 13.294917 37.875782 42.660795
2553 1 2 0.0 16.156496 38.911468 42.978474
2554 1 2 0.0 6.874347 39.197404 38.760490
2555 1 2 0.0 12.364377 40.136088 42.597780
2556 1 2 0.0 8.314603 40.827180 40.804223
2557 1 1 0.0 3.433590 36.427857 40.628360
2558 1 1 0.0 6.824482 38.095902 42.571483
2559 1 1 0.0 10.266688 33.647165 44.005666
2560 1 1 0.0 9.961800 36.027676 42.526571
2561 1 2 0.0 1.265640 36.805051 40.152747
2562 1 2 0.0 9.364648 36.028769 40.592102
2563 1 2 0.0 4.007106 35.707321 42.035465
2564 1 2 0.0 9.558386 34.811832 42.976727
2565 1 2 0.0 12.215905 36.078136 43.481802
2566 1 2 0.0 3.658095 35.622646 39.030027
2567 1 2 0.0 8.641116 37.105557 43.070970
2568 1 2 0.0 4.884455 37.507168 41.229801
2569 1 1 0.0 0.497849 32.684076 40.529304
2570 1 1 0.0 3.537845 34.674551 42.673039
2571 1 1 0.0 6.727118 30.362593 43.884104
2572 1 1 0.0 6.475510 32.705927 42.585933
2573 1 2 0.0 -1.485532 32.960290 40.027763
2574 1 2 0.0 5.975099 32.570647 40.667744
2575 1 2 0.0 1.004266 32.023786 41.854603
2576 1 2 0.0 6.096814 31.457610 42.926729
2577 1 2 0.0 8.548408 32.943863 43.613201
2578 1 2 0.0 0.763682 31.792190 38.923361
2579 1 2 0.0 5.225776 33.770591 43.147860
2580 1 2 0.0 1.791829 33.900463 41.250074
2581 1 1 0.0 -2.095157 28.658710 40.024279
2582 1 1 0.0 0.578414 30.953272 42.368355
2583 1 1 0.0 3.453299 26.775350 43.393905
2584 1 1 0.0 3.270830 29.096478 42.276838
2585 1 2 0.0 -3.868973 28.835986 39.480017
2586 1 2 0.0 2.865295 28.847537 40.390727
2587 1 2 0.0 -1.659529 28.039547 41.258976
2588 1 2 0.0 2.912681 27.810501 42.507502
2589 1 2 0.0 5.147611 29.515698 43.381379
2590 1 2 0.0 -1.802858 27.701241 38.433437
2591 1 2 0.0 2.114413 30.135090 42.833526
2592 1 2 0.0 -0.964388 30.008009 40.866378
2593 1 1 0.0 3.580795 42.192713 43.873605
2594 1 1 0.0 7.434204 43.567508 45.543906
2595 1 1 0.0 11.373564 39.438969 47.320566
2596 1 1 0.0 10.877318 41.613303 45.593709
2597 1 2 0.0 1.162852 42.557808 43.413923
2598 1 2 0.0 10.096012 41.660216 43.650580
2599 1 2 0.0 4.308709 41.549840 45.377039
2600 1 2 0.0 10.489536 40.537529 46.195098
2601 1 2 0.0 13.399943 41.531296 46.449490
2602 1 2 0.0 3.719991 41.460811 42.309495
2603 1 2 0.0 9.455099 42.623741 46.091966
2604 1 2 0.0 5.220571 43.113527 44.317135
2605 1 1 0.0 0.364911 38.894865 44.231741
2606 1 1 0.0 3.851376 40.648084 46.155700
2607 1 1 0.0 7.649769 36.590895 47.610449
2608 1 1 0.0 7.146532 38.759419 46.115603
2609 1 2 0.0 -1.890282 39.160975 43.757043
2610 1 2 0.0 6.448146 38.647681 44.178314
2611 1 2 0.0 1.054005 38.315055 45.641152
2612 1 2 0.0 6.812942 37.630392 46.577500
2613 1 2 0.0 9.492939 38.885279 47.059115
2614 1 2 0.0 0.553930 38.045846 42.634040
2615 1 2 0.0 5.774053 39.780435 46.658154
2616 1 2 0.0 1.831469 39.979040 44.824007
2617 1 1 0.0 -2.448911 35.266690 44.113635
2618 1 1 0.0 0.664053 37.366131 46.276459
2619 1 1 0.0 4.241234 33.383764 47.463020
2620 1 1 0.0 3.759784 35.554059 46.187361
2621 1 2 0.0 -4.516109 35.439313 43.608913
2622 1 2 0.0 3.145820 35.307833 44.270442
2623 1 2 0.0 -1.808813 34.732701 45.425860
2624 1 2 0.0 3.469158 34.371912 46.516982
2625 1 2 0.0 5.916703 35.874767 47.218264
2626 1 2 0.0 -2.224611 34.322998 42.505605
2627 1 2 0.0 2.461445 36.572863 46.750155
2628 1 2 0.0 -1.155638 36.503096 44.848152
2629 1 1 0.0 -4.854083 31.302776 43.511483
2630 1 1 0.0 -2.134193 33.727538 45.914162
2631 1 1 0.0 1.154998 29.809559 46.868515
2632 1 1 0.0 0.713455 32.000919 45.813718
2633 1 2 0.0 -6.706107 31.386340 42.959732
2634 1 2 0.0 0.184210 31.645242 43.933048
2635 1 2 0.0 -4.268043 30.792399 44.716845
2636 1 2 0.0 0.461182 30.758924 46.009554
2637 1 2 0.0 2.663490 32.508295 46.937484
2638 1 2 0.0 -4.608364 30.286496 41.915696
2639 1 2 0.0 -0.487442 33.005690 46.374044
2640 1 2 0.0 -3.742077 32.686821 44.391163
2641 1 1 0.0 0.425389 44.454732 47.419220
2642 1 1 0.0 4.380003 45.873905 49.030835
2643 1 1 0.0 8.650125 42.215221 50.874488
2644 1 1 0.0 7.979646 44.126536 49.092581
2645 1 2 0.0 -2.079400 44.703370 46.964606
2646 1 2 0.0 7.113004 44.058875 47.142354
2647 1 2 0.0 1.252049 43.971260 48.940488
2648 1 2 0.0 7.649069 43.166041 49.729401
2649 1 2 0.0 10.594563 44.106814 49.920505
2650 1 2 0.0 0.538373 43.689904 45.858500
2651 1 2 0.0 6.501840 45.066909 49.586152
2652 1 2 0.0 2.088885 45.355543 47.830048
2653 1 1 0.0 -2.709720 41.354629 47.835123
2654 1 1 0.0 0.859110 43.179363 49.739917
2655 1 1 0.0 5.028554 39.530853 51.215231
2656 1 1 0.0 4.314415 41.474670 49.704635
2657 1 2 0.0 -5.050782 41.510876 47.361339
2658 1 2 0.0 3.514494 41.248488 47.764525
2659 1 2 0.0 -1.900359 40.921365 49.246839
2660 1 2 0.0 4.058166 40.440111 50.178272
2661 1 2 0.0 6.747362 41.671904 50.636429
2662 1 2 0.0 -2.555069 40.462961 46.238053
2663 1 2 0.0 2.888918 42.437033 50.245338
2664 1 2 0.0 -1.234888 42.435170 48.418212
2665 1 1 0.0 -5.377914 37.870918 47.697967
2666 1 1 0.0 -2.203386 40.064642 49.879879
2667 1 1 0.0 1.777556 36.424432 51.041936
2668 1 1 0.0 1.052657 38.410609 49.788790
2669 1 2 0.0 -7.528091 37.942797 47.190064
2670 1 2 0.0 0.323359 38.052216 47.873140
2671 1 2 0.0 -4.598210 37.468317 48.997116
2672 1 2 0.0 0.857921 37.301767 50.107235
2673 1 2 0.0 3.288604 38.808943 50.823327
2674 1 2 0.0 -5.195309 36.875953 46.087849
2675 1 2 0.0 -0.295049 39.383060 50.352451
2676 1 2 0.0 -4.092194 39.118576 48.446230
2677 1 1 0.0 -7.571542 33.997314 46.998687
2678 1 1 0.0 -4.814934 36.536569 49.459970
2679 1 1 0.0 -1.094597 32.886534 50.343125
2680 1 1 0.0 -1.809872 34.938687 49.350597
2681 1 2 0.0 -9.501471 33.991642 46.439448
2682 1 2 0.0 -2.466090 34.475447 47.475369
2683 1 2 0.0 -6.827930 33.600077 48.174715
2684 1 2 0.0 -1.948145 33.747294 49.511606
2685 1 2 0.0 0.209193 35.527955 50.493588
2686 1 2 0.0 -7.373847 32.922127 45.397956
2687 1 2 0.0 -3.055554 35.910421 49.914562
2688 1 2 0.0 -6.484570 35.407068 47.915947
2689 1 1 0.0 41.373190 3.948169 8.222785
2690 1 1 0.0 43.046353 3.638235 10.597306
2691 1 1 0.0 41.975765 -4.793954 11.570047
2692 1 1 0.0 43.755212 -0.679824 10.503800
2693 1 2 0.0 40.552855 5.940524 7.702276
2694 1 2 0.0 44.300731 0.481540 8.645844
2695 1 2 0.0 40.689385 1.916166 9.512200
2696 1 2 0.0 42.747231 -2.433529 10.680013
2697 1 2 0.0 44.486471 -1.895980 11.693853
2698 1 2 0.0 41.871773 3.562842 6.617985
2699 1 2 0.0 43.334871 1.162478 11.058285
2700 1 2 0.0 42.343687 4.393781 9.058742
2701 1 1 0.0 37.936090 0.779596 7.887712
2702 1 1 0.0 39.568993 0.454538 10.041652
2703 1 1 0.0 38.142060 -7.307464 11.249609
2704 1 1 0.0 40.187747 -3.628061 9.943772
2705 1 2 0.0 37.187796 2.651806 7.402043
2706 1 2 0.0 40.906366 -2.619235 8.040328
2707 1 2 0.0 37.068431 -1.044045 9.269463
2708 1 2 0.0 39.056010 -5.183947 10.264781
2709 1 2 0.0 40.876357 -4.802849 11.027910
2710 1 2 0.0 38.528192 0.371147 6.282435
2711 1 2 0.0 39.764949 -1.863669 10.508497
2712 1 2 0.0 38.938660 1.162134 8.590094
2713 1 1 0.0 34.198052 -2.006283 7.998212
2714 1 1 0.0 35.811601 -2.330373 9.931974
2715 1 1 0.0 34.053336 -9.358436 11.412578
2716 1 1 0.0 36.340814 -6.128595 9.866770
2717 1 2 0.0 33.518682 -0.278953 7.531658
2718 1 2 0.0 37.205535 -5.268004 7.934621
2719 1 2 0.0 33.164401 -3.614860 9.467331
2720 1 2 0.0 35.093869 -7.484094 10.330495
2721 1 2 0.0 36.998960 -7.243186 10.854060
2722 1 2 0.0 34.861747 -2.423538 6.415225
2723 1 2 0.0 35.921663 -4.467462 10.419161
2724 1 2 0.0 35.238510 -1.681287 8.567770
2725 1 1 0.0 30.154144 -4.403197 8.561587
2726 1 1 0.0 31.778728 -4.722978 10.261025
2727 1 1 0.0 29.703899 -10.936543 12.069745
2728 1 1 0.0 32.217354 -8.186137 10.267715
2729 1 2 0.0 29.539449 -2.844610 8.099697
2730 1 2 0.0 33.202517 -7.471079 8.321744
2731 1 2 0.0 28.968840 -5.784652 10.118960
2732 1 2 0.0 30.858368 -9.329911 10.881485
2733 1 2 0.0 32.860538 -9.227914 11.160778
2734 1 2 0.0 30.866384 -4.813769 7.025137
2735 1 2 0.0 31.808515 -6.654309 10.784378
2736 1 2 0.0 31.244212 -4.137760 8.990298
2737 1 1 0.0 39.128905 7.111701 11.768399
2738 1 1 0.0 41.071777 6.907093 14.084236
2739 1 1 0.0 40.274201 -1.297899 15.123969
2740 1 1 0.0 41.966509 2.710272 14.002671
2741 1 2 0.0 38.174755 9.010767 11.252960
2742 1 2 0.0 42.407150 3.807129 12.137618
2743 1 2 0.0 38.528406 5.158834 13.075649
2744 1 2 0.0 40.952914 0.993656 14.214316
2745 1 2 0.0 42.874319 1.551239 15.164869
2746 1 2 0.0 39.579096 6.696508 10.166990
2747 1 2 0.0 41.483790 4.512137 14.552471
2748 1 2 0.0 40.208179 7.591835 12.571654
2749 1 1 0.0 35.532559 3.898199 11.491094
2750 1 1 0.0 37.410606 3.724211 13.625868
2751 1 1 0.0 36.264541 -3.844964 14.854392
2752 1 1 0.0 38.205096 -0.242902 13.532804
2753 1 2 0.0 34.660312 5.672020 11.006339
2754 1 2 0.0 38.810630 0.693956 11.626540
2755 1 2 0.0 34.758058 2.147074 12.875150
2756 1 2 0.0 37.079962 -1.781347 13.865554
2757 1 2 0.0 39.059806 -1.338880 14.605223
2758 1 2 0.0 36.070952 3.448453 9.886448
2759 1 2 0.0 37.727073 1.486128 14.095681
2760 1 2 0.0 36.628588 4.339062 12.184300
2761 1 1 0.0 31.687157 1.001413 11.582543
2762 1 1 0.0 33.518433 0.870294 13.535393
2763 1 1 0.0 32.040338 -6.002905 14.991494
2764 1 1 0.0 34.209209 -2.820452 13.468199
2765 1 2 0.0 30.896110 2.627312 11.112809
2766 1 2 0.0 34.955440 -2.037707 11.537319
2767 1 2 0.0 30.753890 -0.543047 13.038588
2768 1 2 0.0 32.979459 -4.178157 13.920748
2769 1 2 0.0 35.020672 -3.836933 14.459123
2770 1 2 0.0 32.292872 0.532324 9.997470
2771 1 2 0.0 33.743234 -1.188969 14.021456
2772 1 2 0.0 32.805068 1.407172 12.165848
2773 1 1 0.0 27.588619 -1.573467 12.048791
2774 1 1 0.0 29.399011 -1.660005 13.806833
2775 1 1 0.0 27.596803 -7.763035 15.544355
2776 1 1 0.0 29.981312 -5.026326 13.804594
2777 1 2 0.0 26.877166 -0.117492 11.579413
2778 1 2 0.0 30.845192 -4.393189 11.864065
2779 1 2 0.0 26.508919 -2.901925 13.576829
2780 1 2 0.0 28.649354 -6.193366 14.383537
2781 1 2 0.0 30.762179 -5.952103 14.716883
2782 1 2 0.0 28.239795 -2.045654 10.507396
2783 1 2 0.0 29.535179 -3.517648 14.324896
2784 1 2 0.0 28.738423 -1.204892 12.515082
2785 1 1 0.0 36.852818 10.250226 15.314013
2786 1 1 0.0 39.051206 10.143653 17.571165
2787 1 1 0.0 38.538186 2.179162 18.677892
2788 1 1 0.0 40.130483 6.070828 17.501543
2789 1 2 0.0 35.767626 12.056353 14.803643
2790 1 2 0.0 40.464969 7.099767 15.629392
2791 1 2 0.0 36.340068 8.381613 16.639099
2792 1 2 0.0 39.119280 4.397185 17.748619
2793 1 2 0.0 41.207649 4.967224 18.635885
2794 1 2 0.0 37.255097 9.804701 13.715995
2795 1 2 0.0 39.586173 7.831676 18.046657
2796 1 2 0.0 38.032870 10.759633 16.084566
2797 1 1 0.0 33.122648 7.011784 15.094476
2798 1 1 0.0 35.232492 6.980032 17.210085
2799 1 1 0.0 34.382216 -0.385113 18.459175
2800 1 1 0.0 36.203595 3.130489 17.121836
2801 1 2 0.0 32.128038 8.688166 14.610635
2802 1 2 0.0 36.694623 3.993403 15.212751
2803 1 2 0.0 32.446366 5.337234 16.480837
2804 1 2 0.0 35.093455 1.614960 17.466326
2805 1 2 0.0 37.218008 2.110626 18.182536
2806 1 2 0.0 33.608158 6.521242 13.490461
2807 1 2 0.0 35.670075 4.823548 17.682865
2808 1 2 0.0 34.304383 7.505246 15.778505
2809 1 1 0.0 29.195304 4.024081 15.166875
2810 1 1 0.0 31.231805 4.075554 17.138813
2811 1 1 0.0 30.052180 -2.633679 18.570410
2812 1 1 0.0 32.087223 0.493698 17.069627
2813 1 2 0.0 28.292988 5.550097 14.693959
2814 1 2 0.0 32.713404 1.198053 15.140017
2815 1 2 0.0 28.368100 2.546737 16.609844
2816 1 2 0.0 30.883446 -0.861151 17.511001
2817 1 2 0.0 33.046411 -0.428374 18.064186
2818 1 2 0.0 29.744212 3.504626 13.579714
2819 1 2 0.0 31.573094 2.094890 17.623752
2820 1 2 0.0 30.383160 4.504399 15.763926
2821 1 1 0.0 25.067556 1.291226 15.535995
2822 1 1 0.0 27.052104 1.426007 17.352640
2823 1 1 0.0 25.544191 -4.559487 19.018965
2824 1 1 0.0 27.783362 -1.842737 17.341474
2825 1 2 0.0 24.258573 2.646737 15.059128
2826 1 2 0.0 28.524257 -1.290626 15.406386
2827 1 2 0.0 24.099759 0.017703 17.034699
2828 1 2 0.0 26.487595 -3.028389 17.885589
2829 1 2 0.0 28.697119 -2.657214 18.272988
2830 1 2 0.0 25.659189 0.759857 13.989656
2831 1 2 0.0 27.297547 -0.357877 17.865414
2832 1 2 0.0 26.269835 1.756257 16.039867
2833 1 1 0.0 34.547221 13.365544 18.859628
2834 1 1 0.0 36.987873 13.350186 21.058094
2835 1 1 0.0 36.770553 5.638789 22.231815
2836 1 1 0.0 38.250935 9.404217 21.000415
2837 1 2 0.0 33.333446 15.078962 18.354326
2838 1 2 0.0 38.478297 10.362238 19.121166
2839 1 2 0.0 34.126315 11.585916 20.202548
2840 1 2 0.0 37.249518 7.778976 21.282922
2841 1 2 0.0 39.490901 8.354518 22.106900
2842 1 2 0.0 34.902219 12.889409 17.265001
2843 1 2 0.0 37.645475 11.123331 21.540843
2844 1 2 0.0 35.820599 13.899333 19.597479
2845 1 1 0.0 30.706815 10.120713 18.697857
2846 1 1 0.0 33.036037 10.222975 20.794302
2847 1 1 0.0 32.495480 3.072305 22.063957
2848 1 1 0.0 34.184756 6.493057 20.710868
2849 1 2 0.0 29.591303 11.700522 18.214931
2850 1 2 0.0 34.560059 7.280268 18.798962
2851 1 2 0.0 30.133448 8.526504 20.086524
2852 1 2 0.0 33.097337 5.005484 21.067099
2853 1 2 0.0 35.353021 5.546846 21.759849
2854 1 2 0.0 31.140244 9.589867 17.094474
2855 1 2 0.0 33.595374 8.149510 21.270049
2856 1 2 0.0 31.967052 10.661452 19.372710
2857 1 1 0.0 26.721119 7.060644 18.751206
2858 1 1 0.0 28.951259 7.285084 20.742233
2859 1 1 0.0 28.086820 0.748117 22.149326
2860 1 1 0.0 29.974086 3.813370 20.671056
2861 1 2 0.0 25.707991 8.488279 18.275110
2862 1 2 0.0 30.478746 4.438816 18.742714
2863 1 2 0.0 26.005275 5.653217 20.181101
2864 1 2 0.0 28.804341 2.466027 21.101254
2865 1 2 0.0 31.075849 2.982305 21.669249
2866 1 2 0.0 27.214190 6.492085 17.161958
2867 1 2 0.0 29.410630 5.383717 21.226047
2868 1 2 0.0 27.971962 7.609768 19.362003
2869 1 1 0.0 22.587751 4.188364 19.023199
2870 1 1 0.0 24.735698 4.533438 20.898448
2871 1 1 0.0 23.541587 -1.328367 22.493575
2872 1 1 0.0 25.620445 1.362721 20.878354
2873 1 2 0.0 21.680694 5.445548 18.538844
2874 1 2 0.0 26.236634 1.834524 18.948708
2875 1 2 0.0 21.737755 2.971612 20.492569
2876 1 2 0.0 24.369261 0.162716 21.387640
2877 1 2 0.0 26.662646 0.655199 21.829093
2878 1 2 0.0 23.120979 3.599846 17.471915
2879 1 2 0.0 25.092968 2.823286 21.405932
2880 1 2 0.0 23.835795 4.743667 19.564652
2881 1 1 0.0 32.213690 16.458896 22.405242
2882 1 1 0.0 34.883997 16.528249 24.545023
2883 1 1 0.0 34.973275 9.082073 25.785737
2884 1 1 0.0 36.330514 12.712091 24.499287
2885 1 2 0.0 30.873566 18.079741 21.905009
2886 1 2 0.0 36.450005 13.596491 22.612940
2887 1 2 0.0 31.888480 14.772711 23.765997
2888 1 2 0.0 35.345848 11.140366 24.817225
2889 1 2 0.0 37.727170 11.714895 25.577916
2890 1 2 0.0 32.522162 15.952014 20.814006
2891 1 2 0.0 35.664083 14.388648 25.035029
2892 1 2 0.0 33.573318 17.012419 23.110391
2893 1 1 0.0 28.285378 13.225235 22.301239
2894 1 1 0.0 30.822194 13.453707 24.378518
2895 1 1 0.0 30.604610 6.527445 25.668740
2896 1 1 0.0 32.149636 9.845463 24.299899
2897 1 2 0.0 27.050327 14.709277 21.819227
2898 1 2 0.0 32.408136 10.555363 22.385174
2899 1 2 0.0 27.819370 11.714929 23.692210
2900 1 2 0.0 31.092198 8.390581 24.667871
2901 1 2 0.0 33.466278 8.970602 25.337162
2902 1 2 0.0 28.667511 12.654573 20.698487
2903 1 2 0.0 31.503951 11.464649 24.857233
2904 1 2 0.0 29.617289 13.808207 22.966916
2905 1 1 0.0 24.263659 10.110358 22.335537
2906 1 1 0.0 26.676478 10.498663 24.345653
2907 1 1 0.0 26.142834 4.141697 25.728242
2908 1 1 0.0 27.869259 7.138230 24.272484
2909 1 2 0.0 23.140214 11.441088 21.856261
2910 1 2 0.0 28.250989 7.684258 22.345412
2911 1 2 0.0 23.664211 8.775515 23.752358
2912 1 2 0.0 26.741102 5.802753 24.691508
2913 1 2 0.0 29.108757 6.394971 25.274312
2914 1 2 0.0 24.701709 9.493809 20.744203
2915 1 2 0.0 27.255416 8.677235 24.828343
2916 1 2 0.0 25.570910 10.722849 22.960081
2917 1 1 0.0 20.147001 7.116212 22.510403
2918 1 1 0.0 22.448212 7.661176 24.444255
2919 1 1 0.0 21.585866 1.928601 25.968185
2920 1 1 0.0 23.490429 4.588716 24.415233
2921 1 2 0.0 19.141495 8.277215 22.018559
2922 1 2 0.0 23.980173 4.980801 22.491029
2923 1 2 0.0 19.420432 5.958003 23.950439
2924 1 2 0.0 22.291681 3.378342 24.889692
2925 1 2 0.0 24.656869 3.984053 25.385197
2926 1 2 0.0 20.622671 6.472284 20.954174
2927 1 2 0.0 22.919610 6.024657 24.946450
2928 1 2 0.0 21.434477 7.755953 23.089437
2929 1 1 0.0 29.853243 19.531082 25.950857
2930 1 1 0.0 32.740996 19.678837 28.031953
2931 1 1 0.0 33.147681 12.509744 29.339660
2932 1 1 0.0 34.370988 15.995555 27.998158
2933 1 2 0.0 28.388838 21.059415 25.455692
2934 1 2 0.0 34.382036 16.803843 26.104714
2935 1 2 0.0 29.627419 17.942623 27.329446
2936 1 2 0.0 33.409759 14.482249 28.351528
2937 1 2 0.0 35.918533 15.049545 29.048932
2938 1 2 0.0 30.116050 18.993429 24.363011
2939 1 2 0.0 33.643556 17.628635 28.529215
2940 1 2 0.0 31.292283 20.099846 26.623303
2941 1 1 0.0 25.858541 16.325510 25.904621
2942 1 1 0.0 28.591570 16.672655 27.962735
2943 1 1 0.0 28.709791 9.980406 29.273522
2944 1 1 0.0 30.098938 13.188144 27.888931
2945 1 2 0.0 24.505252 17.714549 25.423523
2946 1 2 0.0 30.239664 13.819238 25.971385
2947 1 2 0.0 25.504172 14.902541 27.297897
2948 1 2 0.0 29.078435 11.770488 28.268644
2949 1 2 0.0 31.558739 12.382444 28.914476
2950 1 2 0.0 26.190158 15.715521 24.302501
2951 1 2 0.0 29.396446 14.769380 28.444417
2952 1 2 0.0 27.255540 16.945850 26.561121
2953 1 1 0.0 21.822314 13.172745 25.919868
2954 1 1 0.0 24.407261 13.716149 27.949073
2955 1 1 0.0 24.219265 7.546534 29.307159
2956 1 1 0.0 25.772381 10.468052 27.873913
2957 1 2 0.0 20.589087 14.408039 25.437411
2958 1 2 0.0 26.029811 10.934161 25.948110
2959 1 2 0.0 21.344132 11.913069 27.323614
2960 1 2 0.0 24.693034 9.148606 28.281761
2961 1 2 0.0 27.144981 9.809538 28.879375
2962 1 2 0.0 22.206043 12.509207 24.326447
2963 1 2 0.0 25.107174 11.975267 28.430638
2964 1 2 0.0 23.179639 13.843365 26.558159
2965 1 1 0.0 17.743881 10.073652 25.997607
2966 1 1 0.0 20.188635 10.808512 27.990062
2967 1 1 0.0 19.674929 5.210261 29.442796
2968 1 1 0.0 21.391891 7.834360 27.952113
2969 1 2 0.0 16.639694 11.140648 25.498275
2970 1 2 0.0 21.753420 8.147221 26.033350
2971 1 2 0.0 17.146201 8.975720 27.408309
2972 1 2 0.0 20.253067 6.617412 28.391744
2973 1 2 0.0 22.678521 7.328620 28.941302
2974 1 2 0.0 18.162613 9.375829 24.436433
2975 1 2 0.0 20.776279 9.245463 28.486968
2976 1 2 0.0 19.064709 10.792222 26.614221
2977 1 1 0.0 27.466428 22.582534 29.496471
2978 1 1 0.0 30.559612 22.802473 31.518882
2979 1 1 0.0 31.294573 15.922245 32.893582
2980 1 1 0.0 32.373409 19.255266 31.497030
2981 1 2 0.0 25.879691 24.018345 29.006376
2982 1 2 0.0 32.275586 19.985103 29.596488
2983 1 2 0.0 27.343586 21.095980 30.892895
2984 1 2 0.0 31.442140 17.805162 31.885831
2985 1 2 0.0 34.066235 18.359181 32.519947
2986 1 2 0.0 27.684538 22.014189 27.912016
2987 1 2 0.0 31.584759 20.843852 32.023401
2988 1 2 0.0 28.978161 23.162121 30.136215
2989 1 1 0.0 23.426414 19.421625 29.508003
2990 1 1 0.0 26.344484 19.880043 31.546952
2991 1 1 0.0 26.811133 13.431252 32.878305
2992 1 1 0.0 28.033082 16.521363 31.477963
2993 1 2 0.0 21.956149 20.716400 29.027819
2994 1 2 0.0 28.055143 17.072231 29.557597
2995 1 2 0.0 23.187876 18.089354 30.903584
2996 1 2 0.0 27.056285 15.145350 31.869417
2997 1 2 0.0 29.630984 15.782703 32.491789
2998 1 2 0.0 23.708301 18.772808 27.906514
2999 1 2 0.0 27.273216 18.063932 32.031601
3000 1 2 0.0 24.882041 20.074562 30.155326
3001 1 1 0.0 19.396756 16.247547 29.504200
3002 1 1 0.0 22.143502 16.937468 31.552492
3003 1 1 0.0 22.315534 10.962310 32.886075
3004 1 1 0.0 23.683240 13.802703 31.475342
3005 1 2 0.0 18.054323 17.388888 29.018562
3006 1 2 0.0 23.815015 14.188390 29.550807
3007 1 2 0.0 19.044630 15.065582 30.894871
3008 1 2 0.0 22.659720 12.503337 31.872014
3009 1 2 0.0 25.184430 13.225952 32.484438
3010 1 2 0.0 19.726769 15.537937 27.908691
3011 1 2 0.0 22.965750 15.277712 32.032934
3012 1 2 0.0 20.797956 16.971170 30.156237
3013 1 1 0.0 15.377626 13.060081 29.484811
3014 1 1 0.0 17.956436 13.975074 31.535870
3015 1 1 0.0 17.807506 8.515912 32.917406
3016 1 1 0.0 19.323983 11.099125 31.488992
3017 1 2 0.0 14.174647 14.035300 28.977991
3018 1 2 0.0 19.555479 11.333176 29.575672
3019 1 2 0.0 14.914222 12.024152 30.866178
3020 1 2 0.0 18.252349 9.879284 31.893795
3021 1 2 0.0 20.726839 10.688465 32.497407
3022 1 2 0.0 15.739844 12.309698 27.918693
3023 1 2 0.0 18.662310 12.485273 32.027487
3024 1 2 0.0 16.725866 13.851999 30.139006
3025 1 1 0.0 25.053369 25.613348 33.042085
3026 1 1 0.0 28.339973 25.899245 35.005811
3027 1 1 0.0 29.414296 19.319767 36.447505
3028 1 1 0.0 30.338201 22.491487 34.995902
3029 1 2 0.0 23.346161 26.956566 32.557059
3030 1 2 0.0 30.131203 23.140644 33.088262
3031 1 2 0.0 25.037069 24.232847 34.456345
3032 1 2 0.0 29.443361 21.109326 35.420134
3033 1 2 0.0 32.170800 21.644103 35.990963
3034 1 2 0.0 25.227864 25.014486 31.461021
3035 1 2 0.0 29.487938 24.034459 35.517587
3036 1 2 0.0 26.631091 26.199349 33.649127
3037 1 1 0.0 20.989021 22.513600 33.111384
3038 1 1 0.0 24.080990 23.075909 35.131168
3039 1 1 0.0 24.908685 16.880008 36.483088
3040 1 1 0.0 25.952236 19.845225 35.066995
3041 1 2 0.0 19.403023 23.714834 32.632115
3042 1 2 0.0 25.854800 20.314496 33.143808
3043 1 2 0.0 20.870487 21.275373 34.509270
3044 1 2 0.0 25.025845 18.515223 35.470189
3045 1 2 0.0 27.683252 19.171518 36.069102
3046 1 2 0.0 21.221983 21.826466 31.510527
3047 1 2 0.0 25.134361 21.348371 35.618785
3048 1 2 0.0 22.496842 23.194379 33.749532
3049 1 1 0.0 16.986912 19.334704 33.088531
3050 1 1 0.0 19.885184 20.162606 35.155912
3051 1 1 0.0 20.431394 14.388886 36.464991
3052 1 1 0.0 21.601749 17.142129 35.076770
3053 1 2 0.0 15.535896 20.383614 32.599712
3054 1 2 0.0 21.606509 17.446885 33.153505
3055 1 2 0.0 16.765626 18.232996 34.466128
3056 1 2 0.0 20.640988 15.866841 35.462268
3057 1 2 0.0 23.227065 16.644191 36.089501
3058 1 2 0.0 17.263735 18.579873 31.490935
3059 1 2 0.0 20.831100 18.584540 35.635229
3060 1 2 0.0 18.425821 20.106234 33.754315
3061 1 1 0.0 13.048062 16.075363 32.972015
3062 1 1 0.0 15.751526 17.160798 35.081677
3063 1 1 0.0 15.983053 11.845255 36.392016
3064 1 1 0.0 17.286365 14.382797 35.025872
3065 1 2 0.0 11.746297 16.961122 32.457706
3066 1 2 0.0 17.385939 14.538388 33.117993
3067 1 2 0.0 12.724329 15.103181 34.324048
3068 1 2 0.0 16.289083 13.163691 35.395847
3069 1 2 0.0 18.801506 14.063406 36.053512
3070 1 2 0.0 13.354015 15.273609 31.400952
3071 1 2 0.0 16.577513 15.743964 35.568005
3072 1 2 0.0 14.417819 16.935188 33.663791
3073 1 1 0.0 22.613776 28.623296 36.587700
3074 1 1 0.0 26.081599 28.968818 38.492741
3075 1 1 0.0 27.506763 22.702261 40.001427
3076 1 1 0.0 28.265192 25.704112 38.494774
3077 1 2 0.0 20.787902 29.873781 36.107742
3078 1 2 0.0 27.948835 26.270431 36.580036
3079 1 2 0.0 22.707598 27.353027 38.019794
3080 1 2 0.0 27.413297 24.394667 38.954437
3081 1 2 0.0 30.232067 24.904220 39.461979
3082 1 2 0.0 22.745870 27.994192 35.010026
3083 1 2 0.0 27.352742 27.200227 39.011773
3084 1 2 0.0 24.250689 29.211239 37.162039
3085 1 1 0.0 18.546304 25.601388 36.714766
3086 1 1 0.0 21.800884 26.260110 38.715385
3087 1 1 0.0 23.002436 20.326668 40.087870
3088 1 1 0.0 23.856332 23.159688 38.656027
3089 1 2 0.0 16.845817 26.709803 36.236411
3090 1 2 0.0 23.638613 23.546020 36.730020
3091 1 2 0.0 18.551991 24.460587 38.114957
3092 1 2 0.0 22.987083 21.880089 39.070962
3093 1 2 0.0 25.715470 22.548845 39.646415
3094 1 2 0.0 18.731175 24.876473 35.114540
3095 1 2 0.0 22.979736 24.622603 39.205969
3096 1 2 0.0 20.099806 26.305199 37.343737
3097 1 1 0.0 14.592953 22.434354 36.672862
3098 1 1 0.0 17.632373 23.391613 38.759332
3099 1 1 0.0 18.566905 17.826297 40.043907
3100 1 1 0.0 19.527942 20.486353 38.678199
3101 1 2 0.0 13.034039 23.392416 36.180863
3102 1 2 0.0 19.404302 20.709650 36.756203
3103 1 2 0.0 14.507362 21.415488 38.037384
3104 1 2 0.0 18.636895 19.239154 39.052521
3105 1 2 0.0 21.272898 20.064263 39.694564
3106 1 2 0.0 14.817042 21.635098 35.073180
3107 1 2 0.0 18.703287 21.895794 39.237525
3108 1 2 0.0 16.063345 23.248640 37.352393
3109 1 1 0.0 10.755595 19.119817 36.459219
3110 1 1 0.0 13.574245 20.365924 38.627484
3111 1 1 0.0 14.201705 15.198364 39.866626
3112 1 1 0.0 15.279175 17.685463 38.562751
3113 1 2 0.0 9.355167 19.918559 35.937422
3114 1 2 0.0 15.244841 17.762884 36.660314
3115 1 2 0.0 10.577026 18.213170 37.781918
3116 1 2 0.0 14.363420 16.470722 38.897899
3117 1 2 0.0 16.902618 17.453497 39.609616
3118 1 2 0.0 11.005357 18.267748 34.883211
3119 1 2 0.0 14.522160 19.021712 39.108523
3120 1 2 0.0 12.140927 20.042059 37.188575
3121 1 1 0.0 20.146922 31.611807 40.133314
3122 1 1 0.0 23.783372 32.010405 41.979670
3123 1 1 0.0 25.571453 26.069441 43.555350
3124 1 1 0.0 26.153605 28.892656 41.993645
3125 1 2 0.0 18.204150 32.769342 39.658425
3126 1 2 0.0 25.727823 29.374016 40.071810
3127 1 2 0.0 20.354522 30.456046 41.583243
3128 1 2 0.0 25.351322 27.660808 42.488740
3129 1 2 0.0 28.249184 28.139041 42.932994
3130 1 2 0.0 20.237988 30.952844 38.559031
3131 1 2 0.0 25.178188 30.340522 42.505959
3132 1 2 0.0 21.836020 32.197081 40.674951
3133 1 1 0.0 16.098117 28.684875 40.318148
3134 1 1 0.0 19.503684 29.432308 42.299602
3135 1 1 0.0 21.092313 23.771191 43.692653
3136 1 1 0.0 21.745061 26.464558 42.245059
3137 1 2 0.0 14.284406 29.701199 39.840707
3138 1 2 0.0 21.406309 26.766616 40.316231
3139 1 2 0.0 16.232357 27.644974 41.720644
3140 1 2 0.0 20.939831 25.239848 42.671734
3141 1 2 0.0 23.727244 25.914460 43.223728
3142 1 2 0.0 16.235777 27.922747 38.718553
3143 1 2 0.0 20.808938 27.886368 42.793153
3144 1 2 0.0 17.690603 29.406768 40.937942
3145 1 1 0.0 12.215318 25.546840 40.257193
3146 1 1 0.0 15.385231 26.624600 42.362752
3147 1 1 0.0 16.722444 21.274750 43.622823
3148 1 1 0.0 17.461979 23.835473 42.279627
3149 1 2 0.0 10.549263 26.415726 39.762013
3150 1 2 0.0 17.208503 23.976760 40.358900
3151 1 2 0.0 12.270427 24.613485 41.608641
3152 1 2 0.0 16.647735 22.620451 42.642774
3153 1 2 0.0 19.321992 23.486202 43.299627
3154 1 2 0.0 12.387057 24.703911 38.655424
3155 1 2 0.0 16.582486 25.211587 42.839821
3156 1 2 0.0 13.710799 26.398594 40.950470
3157 1 1 0.0 8.501243 22.194243 39.946423
3158 1 1 0.0 11.425393 23.591012 42.173292
3159 1 1 0.0 12.464288 18.575693 43.341236
3160 1 1 0.0 13.303038 21.007514 42.099631
3161 1 2 0.0 7.002406 22.908587 39.417137
3162 1 2 0.0 13.132677 21.006997 40.202636
3163 1 2 0.0 8.473518 21.354997 41.239788
3164 1 2 0.0 12.476111 19.800830 42.399951
3165 1 2 0.0 15.030697 20.859039 43.165721
3166 1 2 0.0 8.694705 21.292796 38.365470
3167 1 2 0.0 12.497004 22.319005 42.649041
3168 1 2 0.0 9.896063 23.173277 40.713360
3169 1 1 0.0 17.651577 34.577914 43.678928
3170 1 1 0.0 21.443429 35.022700 45.466599
3171 1 1 0.0 23.607366 29.420755 47.109272
3172 1 1 0.0 24.001988 32.056212 45.492517
3173 1 2 0.0 15.593662 35.642194 43.209108
3174 1 2 0.0 23.466851 32.450508 43.563584
3175 1 2 0.0 17.976755 33.541116 45.146692
3176 1 2 0.0 23.256257 30.907038 46.023043
3177 1 2 0.0 26.220530 31.347640 46.404010
3178 1 2 0.0 17.703193 33.889609 42.108037
3179 1 2 0.0 22.962584 33.454249 46.000145
3180 1 2 0.0 19.385520 35.155683 44.187863
3181 1 1 0.0 13.644215 31.763867 43.921530
3182 1 1 0.0 17.188592 32.591942 45.883818
3183 1 1 0.0 19.178175 27.213502 47.297435
3184 1 1 0.0 19.617844 29.759474 45.834091
3185 1 2 0.0 11.718584 32.688849 43.445003
3186 1 2 0.0 19.157338 29.975911 43.902443
3187 1 2 0.0 13.911533 30.828495 45.326330
3188 1 2 0.0 18.883777 28.594310 46.272507
3189 1 2 0.0 21.717822 29.267932 46.801041
3190 1 2 0.0 13.735607 30.965141 42.322566
3191 1 2 0.0 18.621273 31.139215 46.380337
3192 1 2 0.0 15.268675 32.498665 44.532148
3193 1 1 0.0 9.854740 28.672739 43.841525
3194 1 1 0.0 13.144020 29.861752 45.966171
3195 1 1 0.0 14.898733 24.734644 47.201739
3196 1 1 0.0 15.404153 27.189672 45.881056
3197 1 2 0.0 8.082402 29.454253 43.343164
3198 1 2 0.0 15.019331 27.248363 43.961598
3199 1 2 0.0 10.055803 27.827701 45.179898
3200 1 2 0.0 14.674061 26.011065 46.233027
3201 1 2 0.0 17.374467 26.910079 46.904690
3202 1 2 0.0 9.974440 27.786849 42.237668
3203 1 2 0.0 14.468998 28.532112 46.442116
3204 1 2 0.0 11.368636 29.556442 44.548548
3205 1 1 0.0 6.286721 25.299991 43.433627
3206 1 1 0.0 9.306296 26.836995 45.719099
3207 1 1 0.0 10.772383 21.978116 46.815846
3208 1 1 0.0 11.359124 24.349678 45.636510
3209 1 2 0.0 4.689883 25.932795 42.896853
3210 1 2 0.0 11.050432 24.271396 43.744957
3211 1 2 0.0 6.415821 24.530128 44.697657
3212 1 2 0.0 10.628574 23.154868 45.902002
3213 1 2 0.0 13.186732 24.280596 46.721826
3214 1 2 0.0 6.423563 24.349974 41.847730
3215 1 2 0.0 10.503341 25.636682 46.189559
3216 1 2 0.0 7.684690 26.329955 44.238145
3217 1 1 0.0 15.125905 37.520173 47.224543
3218 1 1 0.0 19.059003 38.003757 48.953528
3219 1 1 0.0 21.612933 32.755337 50.663195
3220 1 1 0.0 21.808090 35.193376 48.991389
3221 1 2 0.0 12.954601 38.490775 46.759792
3222 1 2 0.0 21.163827 35.498488 47.055358
3223 1 2 0.0 15.572677 36.607059 48.710141
3224 1 2 0.0 21.126263 34.132253 49.557346
3225 1 2 0.0 24.143582 34.528571 49.875026
3226 1 2 0.0 15.139912 36.803209 45.657042
3227 1 2 0.0 20.703377 36.539753 49.494332
3228 1 2 0.0 16.896849 38.085269 47.700775
3229 1 1 0.0 11.184227 34.838074 47.524911
3230 1 1 0.0 14.854422 35.738179 49.468035
3231 1 1 0.0 17.259805 30.653479 50.902218
3232 1 1 0.0 17.473784 33.043876 49.423123
3233 1 2 0.0 9.148048 35.672495 47.049299
3234 1 2 0.0 16.890828 33.173314 47.488654
3235 1 2 0.0 11.589440 34.011095 48.932017
3236 1 2 0.0 16.818431 31.943181 49.873279
3237 1 2 0.0 19.686037 32.608591 50.378354
3238 1 2 0.0 11.230386 34.003427 45.926579
3239 1 2 0.0 16.415689 34.380465 49.967521
3240 1 2 0.0 12.833192 35.580258 48.126353
3241 1 1 0.0 7.512320 31.812917 47.425856
3242 1 1 0.0 10.909135 33.103347 49.569591
3243 1 1 0.0 13.096902 28.206601 50.780655
3244 1 1 0.0 13.354924 30.549237 49.482485
3245 1 2 0.0 5.634687 32.509042 46.924315
3246 1 2 0.0 12.837131 30.524693 47.564296
3247 1 2 0.0 7.864954 31.059201 48.751155
3248 1 2 0.0 12.716731 29.411514 49.823281
3249 1 2 0.0 15.430508 30.335999 50.509753
3250 1 2 0.0 7.580208 30.884737 45.819913
3251 1 2 0.0 12.363279 31.857666 50.044412
3252 1 2 0.0 9.037534 32.722698 48.146626
3253 1 1 0.0 4.114602 28.439082 46.920831
3254 1 1 0.0 7.218930 30.105260 49.264907
3255 1 1 0.0 9.128472 25.407000 50.290456
3256 1 1 0.0 9.449242 27.713087 49.173390
3257 1 2 0.0 2.420367 28.993532 46.376569
3258 1 2 0.0 8.999674 27.557144 47.287278
3259 1 2 0.0 4.406943 27.740748 48.155527
3260 1 2 0.0 8.823020 26.534166 49.404054
3261 1 2 0.0 11.372265 27.719053 50.277931
3262 1 2 0.0 4.194240 27.441162 45.329989
3263 1 2 0.0 8.543133 28.976012 49.730077
3264 1 2 0.0 5.508994 29.513753 47.762930
3265 1 1 0.0 12.567264 40.436506 50.770157
3266 1 1 0.0 16.626122 40.950789 52.440458
3267 1 1 0.0 19.585869 36.071928 54.217117
3268 1 1 0.0 19.568643 38.302106 52.490261
3269 1 2 0.0 10.284336 41.312851 50.310475
3270 1 2 0.0 18.815688 38.515879 50.547132
3271 1 2 0.0 13.139961 39.652183 52.273591
3272 1 2 0.0 18.958667 37.334844 53.091649
3273 1 2 0.0 22.014661 37.679726 53.346041
3274 1 2 0.0 12.545869 39.691793 49.206047
3275 1 2 0.0 18.396889 39.594655 52.988518
3276 1 2 0.0 14.366651 40.983288 51.213687
3277 1 1 0.0 8.717625 37.907079 51.128293
3278 1 1 0.0 12.499470 38.869823 53.052252
3279 1 1 0.0 15.336882 34.090946 54.507001
3280 1 1 0.0 15.311580 36.316952 53.012155
3281 1 2 0.0 6.572364 38.651768 50.653595
3282 1 2 0.0 14.605501 36.357959 51.074865
3283 1 2 0.0 9.265967 37.192691 52.537704
3284 1 2 0.0 14.743082 35.286033 53.474052
3285 1 2 0.0 17.630185 35.935461 53.955667
3286 1 2 0.0 8.719711 37.037277 49.530592
3287 1 2 0.0 14.190677 37.609140 53.554705
3288 1 2 0.0 10.382963 38.650641 51.720558
3289 1 1 0.0 5.189639 34.968618 51.010187
3290 1 1 0.0 8.681141 36.349780 53.173011
3291 1 1 0.0 11.318599 31.691530 54.359572
3292 1 1 0.0 11.314954 33.914583 53.083913
3293 1 2 0.0 3.207879 35.581591 50.505465
3294 1 2 0.0 10.662413 33.806097 51.166994
3295 1 2 0.0 5.699980 34.309511 52.322411
3296 1 2 0.0 10.776996 32.822550 53.413534
3297 1 2 0.0 13.490388 33.764118 54.114816
3298 1 2 0.0 5.205829 33.998771 49.402157
3299 1 2 0.0 10.265983 35.188672 53.646707
3300 1 2 0.0 6.718467 35.898102 51.744704
3301 1 1 0.0 1.988574 31.614419 50.408035
3302 1 1 0.0 5.166127 33.397795 52.810714
3303 1 1 0.0 7.536169 28.864338 53.765067
3304 1 1 0.0 7.576027 31.099384 52.710270
3305 1 2 0.0 0.197814 32.094160 49.856284
3306 1 2 0.0 6.982695 30.865794 50.829600
3307 1 2 0.0 2.451198 30.989993 51.613397
3308 1 2 0.0 7.062660 29.940657 52.906106
3309 1 2 0.0 9.589542 31.175697 53.834035
3310 1 2 0.0 2.010078 30.569076 48.812248
3311 1 2 0.0 6.619201 32.338821 53.270595
3312 1 2 0.0 3.372111 32.727057 51.287714
3313 1 1 0.0 9.971897 43.323959 54.315771
3314 1 1 0.0 14.139135 43.859827 55.927387
3315 1 1 0.0 17.522914 39.368731 57.771040
3316 1 1 0.0 17.278987 41.379494 55.989132
3317 1 2 0.0 7.579119 44.105239 53.861158
3318 1 2 0.0 16.418062 41.499717 54.038906
3319 1 2 0.0 10.675298 42.674082 55.837040
3320 1 2 0.0 16.749661 40.512519 56.625952
3321 1 2 0.0 19.828529 40.798103 56.817057
3322 1 2 0.0 9.917824 42.552724 52.755052
3323 1 2 0.0 16.037884 42.615566 56.482704
3324 1 2 0.0 11.790149 43.846107 54.726599
3325 1 1 0.0 6.243655 40.970290 54.731675
3326 1 1 0.0 10.121311 41.985171 56.636468
3327 1 1 0.0 13.408954 37.525654 58.111783
3328 1 1 0.0 13.129375 39.577544 56.601187
3329 1 2 0.0 3.990914 41.626143 54.257891
3330 1 2 0.0 12.299533 39.528609 54.661077
3331 1 2 0.0 6.940954 40.373167 56.143391
3332 1 2 0.0 12.656716 38.622258 57.074824
3333 1 2 0.0 15.547840 39.247154 57.532980
3334 1 2 0.0 6.203007 40.066224 53.134605
3335 1 2 0.0 11.944084 40.823847 57.141889
3336 1 2 0.0 7.916290 41.708524 55.314764
3337 1 1 0.0 2.888947 38.141609 54.594518
3338 1 1 0.0 6.460842 39.601616 56.776431
3339 1 1 0.0 9.566174 35.190727 57.938488
3340 1 1 0.0 9.285192 37.286300 56.685342
3341 1 2 0.0 0.804491 38.674033 54.086616
3342 1 2 0.0 8.495901 37.093064 54.769691
3343 1 2 0.0 3.563874 37.580807 55.893668
3344 1 2 0.0 8.856640 36.245245 57.003787
3345 1 2 0.0 11.554494 37.194659 57.719879
3346 1 2 0.0 2.853395 37.130651 52.984401
3347 1 2 0.0 8.178043 38.525733 57.249003
3348 1 2 0.0 4.412817 39.083707 55.342782
3349 1 1 0.0 -0.086106 34.830133 53.895239
3350 1 1 0.0 3.151919 36.717432 56.356521
3351 1 1 0.0 6.000627 32.352971 57.239677
3352 1 1 0.0 5.743226 34.510908 56.247149
3353 1 2 0.0 -1.972134 35.239471 53.336000
3354 1 2 0.0 5.002768 34.199567 54.371921
3355 1 2 0.0 0.554726 34.282329 55.071267
3356 1 2 0.0 5.352072 33.377094 56.408157
3357 1 2 0.0 7.841763 34.652361 57.390140
3358 1 2 0.0 -0.124167 33.737585 52.294507
3359 1 2 0.0 4.735562 35.727709 56.811113
3360 1 2 0.0 1.278508 35.973262 54.812499
3361 1 1 0.0 41.254647 -5.038150 15.119336
3362 1 1 0.0 42.822067 -5.700519 17.493858
3363 1 1 0.0 39.963836 -13.705422 18.466599
3364 1 1 0.0 42.586098 -10.070008 17.400351
3365 1 2 0.0 40.881789 -2.916027 14.598828
3366 1 2 0.0 43.368521 -9.053066 15.542396
3367 1 2 0.0 40.150008 -6.875648 16.408752
3368 1 2 0.0 41.224688 -11.566025 17.576564
3369 1 2 0.0 43.038823 -11.414929 18.590405
3370 1 2 0.0 41.658740 -5.521648 13.514537
3371 1 2 0.0 42.571624 -8.180416 17.954837
3372 1 2 0.0 42.298248 -4.811584 15.955294
3373 1 1 0.0 37.216755 -7.393768 14.784264
3374 1 1 0.0 38.741604 -8.062253 16.938203
3375 1 1 0.0 35.679431 -15.336035 18.146161
3376 1 1 0.0 38.468254 -12.182416 16.840324
3377 1 2 0.0 36.888426 -5.404469 14.298595
3378 1 2 0.0 39.386940 -11.351658 14.936880
3379 1 2 0.0 35.977353 -8.988252 16.166015
3380 1 2 0.0 37.028507 -13.458637 17.161333
3381 1 2 0.0 38.888220 -13.477770 17.924462
3382 1 2 0.0 37.707210 -7.919953 13.178987
3383 1 2 0.0 38.434633 -10.368386 17.405049
3384 1 2 0.0 38.278120 -7.235697 15.486646
3385 1 1 0.0 32.967229 -9.310947 14.894764
3386 1 1 0.0 34.473384 -9.974326 16.828525
3387 1 1 0.0 31.245401 -16.460102 18.309129
3388 1 1 0.0 34.173720 -13.797513 16.763322
3389 1 2 0.0 32.675068 -7.477957 14.428210
3390 1 2 0.0 35.203225 -13.142931 14.831173
3391 1 2 0.0 31.611948 -10.659712 16.363883
3392 1 2 0.0 32.664535 -14.853265 17.227046
3393 1 2 0.0 34.576874 -15.027527 17.750611
3394 1 2 0.0 33.525710 -9.861122 13.311777
3395 1 2 0.0 34.121463 -12.085111 17.315712
3396 1 2 0.0 34.053227 -9.217217 15.464322
3397 1 1 0.0 28.502600 -10.782502 15.458138
3398 1 1 0.0 30.020458 -11.444045 17.157577
3399 1 1 0.0 26.658405 -17.066313 18.966297
3400 1 1 0.0 29.704353 -14.920528 17.164267
3401 1 2 0.0 28.237326 -9.128213 14.996249
3402 1 2 0.0 30.820199 -14.433969 15.218296
3403 1 2 0.0 27.048035 -11.876854 17.015511
3404 1 2 0.0 28.131261 -15.745420 17.778037
3405 1 2 0.0 30.108549 -16.076215 18.057330
3406 1 2 0.0 29.109927 -11.336586 13.921689
3407 1 2 0.0 29.634370 -13.336626 17.680930
3408 1 2 0.0 29.624243 -10.757604 15.886849
3409 1 1 0.0 39.742898 -1.466125 18.664951
3410 1 1 0.0 41.596362 -2.083609 20.980787
3411 1 1 0.0 39.053602 -9.925317 22.020521
3412 1 1 0.0 41.567984 -6.374652 20.899223
3413 1 2 0.0 39.219299 0.593657 18.149511
3414 1 2 0.0 42.234115 -5.398163 19.034170
3415 1 2 0.0 38.736630 -3.244245 19.972201
3416 1 2 0.0 40.209064 -7.833241 21.110868
3417 1 2 0.0 42.205412 -7.701740 22.061421
3418 1 2 0.0 40.093310 -1.968388 17.063542
3419 1 2 0.0 41.483898 -4.511143 21.449023
3420 1 2 0.0 40.900154 -1.229228 19.468206
3421 1 1 0.0 35.539825 -3.831389 18.387645
3422 1 1 0.0 37.336562 -4.405033 20.522420
3423 1 1 0.0 34.590142 -11.550875 21.750944
3424 1 1 0.0 37.259666 -8.450190 20.429355
3425 1 2 0.0 35.069289 -1.911531 17.902891
3426 1 2 0.0 38.052439 -7.665406 18.523091
3427 1 2 0.0 34.406991 -5.375078 19.771702
3428 1 2 0.0 35.830116 -9.710796 20.762106
3429 1 2 0.0 37.858790 -9.704281 21.501775
3430 1 2 0.0 35.968949 -4.386359 16.783000
3431 1 2 0.0 37.164509 -6.658822 20.992233
3432 1 2 0.0 36.705002 -3.636447 19.080852
3433 1 1 0.0 31.161603 -5.833802 18.479095
3434 1 1 0.0 32.921878 -6.355525 20.431945
3435 1 1 0.0 30.000806 -12.750286 21.888046
3436 1 1 0.0 32.803103 -10.108480 20.364750
3437 1 2 0.0 30.738570 -4.075864 18.009361
3438 1 2 0.0 33.700154 -9.504453 18.433871
3439 1 2 0.0 29.918142 -7.141528 19.935139
3440 1 2 0.0 31.310237 -11.170083 20.817300
3441 1 2 0.0 33.377081 -11.275637 21.355674
3442 1 2 0.0 31.652317 -6.422134 16.894021
3443 1 2 0.0 32.698742 -8.414969 20.918008
3444 1 2 0.0 32.340604 -5.677847 19.062399
3445 1 1 0.0 26.605364 -7.467418 18.945342
3446 1 1 0.0 28.354827 -7.941113 20.703385
3447 1 1 0.0 25.282782 -13.514036 22.440907
3448 1 1 0.0 28.199854 -11.353909 20.701146
3449 1 2 0.0 26.223535 -5.892541 18.475964
3450 1 2 0.0 29.179643 -10.921283 18.760617
3451 1 2 0.0 25.265328 -8.532713 20.473381
3452 1 2 0.0 26.648157 -12.207333 21.280089
3453 1 2 0.0 28.763451 -12.425905 21.613435
3454 1 2 0.0 27.139809 -8.068548 17.403948
3455 1 2 0.0 28.088473 -9.784598 21.221448
3456 1 2 0.0 27.807518 -7.354633 19.411634
3457 1 1 0.0 38.194715 2.088314 22.210565
3458 1 1 0.0 40.318796 1.511645 24.467717
3459 1 1 0.0 38.105640 -6.156357 25.574444
3460 1 1 0.0 40.497303 -2.697972 24.398095
3461 1 2 0.0 37.523158 4.085500 21.700195
3462 1 2 0.0 41.045161 -1.764994 22.525944
3463 1 2 0.0 37.292257 0.373615 23.535650
3464 1 2 0.0 39.149958 -4.115108 24.645171
3465 1 2 0.0 41.312044 -4.007334 25.532436
3466 1 2 0.0 38.491814 1.566728 20.612547
3467 1 2 0.0 40.344249 -0.861282 24.943209
3468 1 2 0.0 39.456686 2.332136 22.981118
3469 1 1 0.0 33.855585 -0.272538 21.991027
3470 1 1 0.0 35.909276 -0.757101 24.106637
3471 1 1 0.0 33.495591 -7.767270 25.355726
3472 1 1 0.0 36.030137 -4.725403 24.018387
3473 1 2 0.0 33.244602 1.578463 21.507187
3474 1 2 0.0 36.695187 -3.988220 22.109303
3475 1 2 0.0 32.835135 -1.762557 23.377389
3476 1 2 0.0 34.620158 -5.966853 24.362878
3477 1 2 0.0 36.801594 -5.939491 25.079088
3478 1 2 0.0 34.224293 -0.855982 20.387013
3479 1 2 0.0 35.873049 -2.957235 24.579417
3480 1 2 0.0 35.115772 -0.044651 22.675057
3481 1 1 0.0 29.377792 -2.346127 22.063426
3482 1 1 0.0 31.377747 -2.733645 24.035365
3483 1 1 0.0 28.783413 -9.032436 25.466962
3484 1 1 0.0 31.443172 -6.415649 23.966179
3485 1 2 0.0 28.824620 -0.661817 21.590511
3486 1 2 0.0 32.206129 -5.862372 22.036568
3487 1 2 0.0 28.252343 -3.611107 23.506396
3488 1 2 0.0 29.976287 -7.480046 24.407553
3489 1 2 0.0 32.181717 -7.522360 24.960737
3490 1 2 0.0 29.802200 -2.971437 20.476266
3491 1 2 0.0 31.285272 -4.741369 24.520303
3492 1 2 0.0 30.641131 -2.132393 22.660477
3493 1 1 0.0 24.759066 -4.127746 22.432546
3494 1 1 0.0 26.726190 -4.422735 24.249192
3495 1 1 0.0 23.966827 -9.944135 25.915517
3496 1 1 0.0 26.737668 -7.772256 24.238026
3497 1 2 0.0 24.260391 -2.630018 21.955680
3498 1 2 0.0 27.579929 -7.392324 22.302938
3499 1 2 0.0 23.540126 -5.163447 23.931251
3500 1 2 0.0 25.217316 -8.651637 24.782140
3501 1 2 0.0 27.454974 -8.764122 25.169540
3502 1 2 0.0 25.222639 -4.773875 20.886207
3503 1 2 0.0 26.582412 -6.217676 24.761966
3504 1 2 0.0 26.033204 -3.932042 22.936419
3505 1 1 0.0 36.612723 5.626434 25.756179
3506 1 1 0.0 38.993012 5.086766 27.954646
3507 1 1 0.0 37.123050 -2.397624 29.128366
3508 1 1 0.0 39.378278 0.961531 27.896966
3509 1 2 0.0 35.795659 7.560719 25.250878
3510 1 2 0.0 39.806270 1.848279 26.017718
3511 1 2 0.0 35.819090 3.978894 27.099100
3512 1 2 0.0 38.050894 -0.410437 28.179474
3513 1 2 0.0 40.363600 -0.330182 29.003452
3514 1 2 0.0 36.857067 5.085117 24.161552
3515 1 2 0.0 39.156532 2.770609 28.437395
3516 1 2 0.0 37.971079 5.874004 26.494030
3517 1 1 0.0 32.164561 3.283039 25.594409
3518 1 1 0.0 34.461310 2.882196 27.690853
3519 1 1 0.0 32.396209 -3.985091 28.960509
3520 1 1 0.0 34.781351 -1.007459 27.607419
3521 1 2 0.0 31.414741 5.065715 25.111483
3522 1 2 0.0 35.317106 -0.319332 25.695514
3523 1 2 0.0 31.261891 1.849358 26.983075
3524 1 2 0.0 33.399570 -2.226491 27.963651
3525 1 2 0.0 35.718895 -2.182690 28.656401
3526 1 2 0.0 32.473741 2.671429 23.991026
3527 1 2 0.0 34.561837 0.736967 28.166601
3528 1 2 0.0 33.511577 3.540221 26.269262
3529 1 1 0.0 27.614224 1.151319 25.647758
3530 1 1 0.0 29.840472 0.891098 27.638785
3531 1 1 0.0 27.590988 -5.307210 29.045878
3532 1 1 0.0 30.093071 -2.719327 27.567608
3533 1 2 0.0 26.931681 2.763370 25.171662
3534 1 2 0.0 30.720384 -2.216991 25.639266
3535 1 2 0.0 26.612561 -0.069318 27.077653
3536 1 2 0.0 28.661034 -3.783709 27.997806
3537 1 2 0.0 30.990420 -3.767809 28.565800
3538 1 2 0.0 27.973543 0.490057 24.058510
3539 1 2 0.0 29.880366 -1.064568 28.122599
3540 1 2 0.0 28.953868 1.418710 26.258555
3541 1 1 0.0 22.960037 -0.765257 25.919750
3542 1 1 0.0 25.131946 -0.889996 27.794999
3543 1 1 0.0 22.705639 -6.358056 29.390127
3544 1 1 0.0 25.314398 -4.176777 27.774905
3545 1 2 0.0 22.344443 0.657526 25.435396
3546 1 2 0.0 26.017604 -3.848467 25.845259
3547 1 2 0.0 21.868347 -1.770837 27.389121
3548 1 2 0.0 23.834501 -5.079759 28.284192
3549 1 2 0.0 26.180137 -5.091800 28.725644
3550 1 2 0.0 23.354284 -1.454644 24.368467
3551 1 2 0.0 25.113231 -2.636967 28.302484
3552 1 2 0.0 24.298275 -0.491229 26.461203
3553 1 1 0.0 34.998728 9.149105 29.301794
3554 1 1 0.0 37.621514 8.642799 31.441575
3555 1 1 0.0 36.107996 1.351518 32.682289
3556 1 1 0.0 38.213851 4.604903 31.395838
3557 1 2 0.0 34.038369 11.020143 28.801561
3558 1 2 0.0 38.520667 5.442939 29.509492
3559 1 2 0.0 34.318641 7.572253 30.662549
3560 1 2 0.0 36.914331 3.281598 31.713777
3561 1 2 0.0 39.363486 3.330781 32.474468
3562 1 2 0.0 35.191023 8.587761 27.710557
3563 1 2 0.0 37.923411 6.385526 31.931581
3564 1 2 0.0 36.445560 9.397407 30.006942
3565 1 1 0.0 30.467117 6.835516 29.197791
3566 1 1 0.0 32.993737 6.513306 31.275070
3567 1 1 0.0 31.292299 -0.204250 32.565292
3568 1 1 0.0 33.514479 2.704060 31.196451
3569 1 2 0.0 29.579965 8.550361 28.715779
3570 1 2 0.0 33.919543 3.341793 29.281726
3571 1 2 0.0 29.687332 5.460699 30.588762
3572 1 2 0.0 32.169007 1.510510 31.564423
3573 1 2 0.0 34.612269 1.566614 32.233714
3574 1 2 0.0 30.717639 6.196048 27.595039
3575 1 2 0.0 33.231967 4.424194 31.753785
3576 1 2 0.0 31.893210 7.118537 29.863468
3577 1 1 0.0 25.869816 4.658014 29.232089
3578 1 1 0.0 28.309699 4.518556 31.242204
3579 1 1 0.0 26.421971 -1.575070 32.624794
3580 1 1 0.0 28.752199 0.980275 31.169036
3581 1 2 0.0 25.058705 6.199139 28.752812
3582 1 2 0.0 29.242385 1.431477 29.241964
3583 1 2 0.0 24.997431 3.483242 30.648909
3584 1 2 0.0 27.363330 -0.081459 31.588059
3585 1 2 0.0 29.802940 -0.012062 32.170863
3586 1 2 0.0 26.165085 3.961711 27.640754
3587 1 2 0.0 28.483549 2.615258 31.724895
3588 1 2 0.0 27.278171 4.975165 29.856633
3589 1 1 0.0 21.205750 2.618829 29.406954
3590 1 1 0.0 23.570312 2.656360 31.340807
3591 1 1 0.0 21.495793 -2.756812 32.864737
3592 1 1 0.0 23.927675 -0.568314 31.311785
3593 1 2 0.0 20.473334 3.968843 28.915111
3594 1 2 0.0 24.490255 -0.290675 29.387581
3595 1 2 0.0 20.247188 1.643889 30.846990
3596 1 2 0.0 22.496758 -1.492695 31.786244
3597 1 2 0.0 24.936859 -1.409590 32.281749
3598 1 2 0.0 21.531875 1.887701 27.850726
3599 1 2 0.0 23.678886 0.956766 31.843002
3600 1 2 0.0 22.600652 2.966844 29.985988
3601 1 1 0.0 33.353896 12.656892 32.847408
3602 1 1 0.0 36.205898 12.180411 34.928504
3603 1 1 0.0 35.061932 5.091501 36.236211
3604 1 1 0.0 37.005985 8.232842 34.894710
3605 1 2 0.0 32.252275 14.464296 32.352244
3606 1 2 0.0 37.190533 9.019857 33.001266
3607 1 2 0.0 32.791880 11.154115 34.225998
3608 1 2 0.0 35.741912 6.961552 35.248080
3609 1 2 0.0 38.313985 6.976272 35.945483
3610 1 2 0.0 33.494979 12.075313 31.259563
3611 1 2 0.0 36.646624 9.984117 35.425767
3612 1 2 0.0 34.881559 12.903007 33.519854
3613 1 1 0.0 28.763485 10.385007 32.801173
3614 1 1 0.0 31.507243 10.136515 34.859287
3615 1 1 0.0 30.184064 3.575313 36.170074
3616 1 1 0.0 32.230303 6.409431 34.785483
3617 1 2 0.0 27.740437 12.032488 32.320075
3618 1 2 0.0 32.503406 6.995518 32.867937
3619 1 2 0.0 28.111504 9.071485 34.194449
3620 1 2 0.0 30.928905 5.244297 35.165196
3621 1 2 0.0 33.482773 5.308753 35.811027
3622 1 2 0.0 28.956219 9.717992 31.199052
3623 1 2 0.0 31.884154 8.104713 35.340969
3624 1 2 0.0 30.261177 10.690530 33.457673
3625 1 1 0.0 24.143871 8.173621 32.816420
3626 1 1 0.0 26.785199 8.148633 34.845624
3627 1 1 0.0 25.275314 2.163675 36.203710
3628 1 1 0.0 27.420159 4.683014 34.770465
3629 1 2 0.0 23.205028 9.645142 32.333963
3630 1 2 0.0 27.771770 5.082886 32.844661
3631 1 2 0.0 23.406076 7.046191 34.220166
3632 1 2 0.0 26.082404 3.626445 35.178313
3633 1 2 0.0 28.619107 3.744828 35.775926
3634 1 2 0.0 24.375988 7.443106 31.222999
3635 1 2 0.0 27.094511 6.297992 35.327190
3636 1 2 0.0 25.613626 8.536778 33.454711
3637 1 1 0.0 19.494576 6.023726 32.894158
3638 1 1 0.0 22.040146 6.215856 34.886614
3639 1 1 0.0 20.334992 0.858920 36.339347
3640 1 1 0.0 22.575916 3.052573 34.848664
3641 1 2 0.0 18.645577 7.303143 32.394827
3642 1 2 0.0 22.996249 3.280401 32.929902
3643 1 2 0.0 18.674847 5.079946 34.304860
3644 1 2 0.0 21.202110 2.108890 35.288296
3645 1 2 0.0 23.723746 2.282069 35.837854
3646 1 2 0.0 19.753508 5.252202 31.332985
3647 1 2 0.0 22.278042 4.563023 35.383520
3648 1 2 0.0 20.938996 6.441557 33.510773
3649 1 1 0.0 31.678855 16.150096 36.393023
3650 1 1 0.0 34.747003 15.699951 38.415434
3651 1 1 0.0 33.985736 8.822584 39.790134
3652 1 1 0.0 35.755850 11.845762 38.393582
3653 1 2 0.0 30.437872 17.893441 35.902927
3654 1 2 0.0 35.817207 12.579565 36.493040
3655 1 2 0.0 31.239320 14.724705 37.789447
3656 1 2 0.0 34.534624 10.629757 38.782383
3657 1 2 0.0 37.216467 10.606720 39.416499
3658 1 2 0.0 31.769689 15.548152 34.808568
3659 1 2 0.0 35.327137 13.566745 38.919953
3660 1 2 0.0 33.279840 16.391155 37.032767
3661 1 1 0.0 27.053792 13.931572 36.404554
3662 1 1 0.0 30.002186 13.751973 38.443503
3663 1 1 0.0 29.071626 7.353635 39.774857
3664 1 1 0.0 30.929289 10.108819 38.374515
3665 1 2 0.0 25.896240 15.512139 35.924371
3666 1 2 0.0 31.069254 10.642065 36.454148
3667 1 2 0.0 26.534433 12.681727 37.800135
3668 1 2 0.0 29.679526 8.974958 38.765968
3669 1 2 0.0 32.331042 9.043927 39.388340
3670 1 2 0.0 27.189613 13.237326 34.803065
3671 1 2 0.0 30.518795 11.778672 38.928153
3672 1 2 0.0 28.615750 14.256326 37.051878
3673 1 1 0.0 22.436013 11.697959 36.400751
3674 1 1 0.0 25.266854 11.781281 38.449044
3675 1 1 0.0 24.150382 5.908837 39.782626
3676 1 1 0.0 26.096712 8.388807 38.371893
3677 1 2 0.0 21.370320 13.101200 35.915113
3678 1 2 0.0 26.308318 8.737149 36.447359
3679 1 2 0.0 21.838032 10.619325 37.791423
3680 1 2 0.0 24.817796 7.339846 38.768566
3681 1 2 0.0 27.438821 7.502828 39.380989
3682 1 2 0.0 22.605766 10.933996 34.805243
3683 1 2 0.0 25.713080 9.983570 38.929486
3684 1 2 0.0 23.960011 12.103448 37.052789
3685 1 1 0.0 17.825637 9.449009 36.381363
3686 1 1 0.0 20.540853 9.788242 38.432421
3687 1 1 0.0 19.221845 4.488727 39.813957
3688 1 1 0.0 21.258183 6.685548 38.385544
3689 1 2 0.0 16.860426 10.660032 35.874542
3690 1 2 0.0 21.534580 6.864363 36.472223
3691 1 2 0.0 17.150373 8.536918 37.762730
3692 1 2 0.0 19.949373 5.724597 38.790347
3693 1 2 0.0 22.539961 5.982917 39.393959
3694 1 2 0.0 18.018077 8.638303 34.815244
3695 1 2 0.0 20.909960 8.181529 38.924038
3696 1 2 0.0 19.312595 9.932580 37.035558
3697 1 1 0.0 29.973748 19.628788 39.938637
3698 1 1 0.0 33.244972 19.201479 41.902363
3699 1 1 0.0 32.879784 12.544877 43.344056
3700 1 1 0.0 34.463915 15.443832 41.892454
3701 1 2 0.0 28.595206 21.307602 39.453611
3702 1 2 0.0 34.401307 16.122311 39.984814
3703 1 2 0.0 29.661062 18.284067 41.352896
3704 1 2 0.0 33.292873 14.286350 42.316686
3705 1 2 0.0 36.071507 14.222305 42.887515
3706 1 2 0.0 30.015426 19.006416 38.357573
3707 1 2 0.0 33.965225 17.133512 42.414139
3708 1 2 0.0 31.640557 19.861926 40.545679
3709 1 1 0.0 25.338067 17.475225 40.007936
3710 1 1 0.0 28.478628 17.359706 42.027720
3711 1 1 0.0 27.955037 11.130731 43.379639
3712 1 1 0.0 29.611624 13.802291 41.963547
3713 1 2 0.0 24.047379 18.989318 39.528667
3714 1 2 0.0 29.617345 14.281537 40.040360
3715 1 2 0.0 24.956123 16.291429 41.405822
3716 1 2 0.0 28.420980 12.702531 42.366741
3717 1 2 0.0 31.157342 12.772217 42.965653
3718 1 2 0.0 25.417869 16.754076 38.407078
3719 1 2 0.0 29.136002 15.446113 42.515337
3720 1 2 0.0 26.956984 17.815951 40.646084
3721 1 1 0.0 20.746157 15.230985 39.985083
3722 1 1 0.0 23.754643 15.416489 42.052464
3723 1 1 0.0 23.046904 9.660336 43.361543
3724 1 1 0.0 24.781763 12.097619 41.973322
3725 1 2 0.0 19.554550 16.567298 39.496264
3726 1 2 0.0 24.851926 12.394226 40.050057
3727 1 2 0.0 20.293210 14.202605 41.362679
3728 1 2 0.0 23.569315 11.058681 42.358819
3729 1 2 0.0 26.262038 11.261927 42.986052
3730 1 2 0.0 20.854242 14.434293 38.387487
3731 1 2 0.0 24.339208 13.671973 42.531781
3732 1 2 0.0 22.317281 15.675154 40.650866
3733 1 1 0.0 16.198733 12.894583 39.868567
3734 1 1 0.0 19.072329 13.373476 41.978229
3735 1 1 0.0 18.155758 8.132435 43.288568
3736 1 1 0.0 19.974096 10.330478 41.922424
3737 1 2 0.0 15.117815 14.039474 39.354258
3738 1 2 0.0 20.104790 10.461026 40.014545
3739 1 2 0.0 15.673579 12.014722 41.220600
3740 1 2 0.0 18.738058 9.354260 42.292399
3741 1 2 0.0 21.385154 9.692843 42.950063
3742 1 2 0.0 16.325180 12.045802 38.297504
3743 1 2 0.0 19.574427 11.812204 42.464556
3744 1 2 0.0 17.721304 13.439847 40.560342
3745 1 1 0.0 28.238242 23.092806 43.484251
3746 1 1 0.0 31.699266 22.684771 45.389292
3747 1 1 0.0 31.743985 16.258354 46.897979
3748 1 1 0.0 33.129992 19.026984 45.391325
3749 1 2 0.0 26.723872 24.706564 43.004294
3750 1 2 0.0 32.942773 19.648069 43.476588
3751 1 2 0.0 28.056799 21.832066 44.916345
3752 1 2 0.0 32.016522 17.931285 45.850989
3753 1 2 0.0 34.878930 17.822972 46.358530
3754 1 2 0.0 28.232008 22.450013 41.906578
3755 1 2 0.0 32.560495 20.684270 45.908325
3756 1 2 0.0 29.963274 23.315115 44.058591
3757 1 1 0.0 23.616243 21.015935 43.611318
3758 1 1 0.0 26.936339 20.959618 45.611937
3759 1 1 0.0 26.834285 14.906597 46.984422
3760 1 1 0.0 28.277233 17.489821 45.552579
3761 1 2 0.0 22.193789 22.463990 43.132963
3762 1 2 0.0 28.147654 17.913924 43.626571
3763 1 2 0.0 23.376559 19.900582 45.011509
3764 1 2 0.0 27.153230 16.427002 45.967513
3765 1 2 0.0 29.961592 16.493600 46.542967
3766 1 2 0.0 23.640957 20.268226 42.011091
3767 1 2 0.0 27.735614 19.106976 46.102521
3768 1 2 0.0 25.284724 21.369334 44.240289
3769 1 1 0.0 19.074501 18.772798 43.569414
3770 1 1 0.0 22.248644 19.054291 45.655883
3771 1 1 0.0 21.964948 13.418192 46.940459
3772 1 1 0.0 23.475350 15.809463 45.574751
3773 1 2 0.0 17.757988 20.043581 43.077415
3774 1 2 0.0 23.402603 16.054118 43.652754
3775 1 2 0.0 18.771885 17.796151 44.933936
3776 1 2 0.0 22.337024 14.782971 45.949073
3777 1 2 0.0 25.088773 15.022127 46.591115
3778 1 2 0.0 19.121534 17.944056 41.969731
3779 1 2 0.0 22.972964 17.363229 46.134077
3780 1 2 0.0 20.685563 19.251955 44.248944
3781 1 1 0.0 14.614330 16.360671 43.355771
3782 1 1 0.0 17.634958 16.971718 45.524036
3783 1 1 0.0 17.136876 11.790087 46.763178
3784 1 1 0.0 18.723808 13.987416 45.459303
3785 1 2 0.0 13.418350 17.441790 42.833974
3786 1 2 0.0 18.706920 14.070407 43.556866
3787 1 2 0.0 14.245034 15.513608 44.678470
3788 1 2 0.0 17.568329 12.997935 45.794451
3789 1 2 0.0 20.259430 13.411881 46.506168
3790 1 2 0.0 14.675084 15.474832 41.779763
3791 1 2 0.0 18.271746 15.455160 46.005075
3792 1 2 0.0 16.165529 16.963546 44.085127
3793 1 1 0.0 26.471502 26.541748 47.029866
3794 1 1 0.0 30.108620 26.149298 48.876222
3795 1 1 0.0 30.577766 19.962846 50.451902
3796 1 1 0.0 31.753215 22.594910 48.890197
3797 1 2 0.0 24.822987 28.089859 46.554977
3798 1 2 0.0 31.440866 23.156547 46.968362
3799 1 2 0.0 26.425794 25.368380 48.479795
3800 1 2 0.0 30.704879 21.564329 49.385292
3801 1 2 0.0 33.637796 21.408426 49.829546
3802 1 2 0.0 26.418781 25.878614 45.455583
3803 1 2 0.0 31.111851 24.218612 49.402511
3804 1 2 0.0 28.246927 26.750232 47.571503
3805 1 1 0.0 21.888153 24.553619 47.214700
3806 1 1 0.0 25.374774 24.551482 49.196153
3807 1 1 0.0 25.709290 18.681210 50.589205
3808 1 1 0.0 26.925771 21.171286 49.141611
3809 1 2 0.0 20.335324 25.936076 46.737259
3810 1 2 0.0 26.659873 21.539103 47.212783
3811 1 2 0.0 21.795706 23.509173 48.617195
3812 1 2 0.0 25.876091 20.148309 49.568286
3813 1 2 0.0 28.743357 20.207938 50.120280
3814 1 2 0.0 21.858759 23.779717 45.615105
3815 1 2 0.0 26.317181 22.761093 49.689705
3816 1 2 0.0 23.598592 24.916298 47.834494
3817 1 1 0.0 17.421546 22.323637 47.153745
3818 1 1 0.0 20.749034 22.694762 49.259303
3819 1 1 0.0 20.904925 17.182527 50.519375
3820 1 1 0.0 22.177649 19.524403 49.176179
3821 1 2 0.0 15.981228 23.530361 46.658565
3822 1 2 0.0 21.960473 19.716877 47.255452
3823 1 2 0.0 17.274723 21.400256 48.505193
3824 1 2 0.0 21.121249 18.512826 49.539326
3825 1 2 0.0 23.919094 18.783451 50.196178
3826 1 2 0.0 17.408065 21.463496 45.551976
3827 1 2 0.0 21.614543 21.057410 49.736372
3828 1 2 0.0 19.065165 22.833993 47.847022
3829 1 1 0.0 13.073595 19.847838 46.842975
3830 1 1 0.0 16.229644 20.583346 49.069844
3831 1 1 0.0 16.166104 15.461950 50.237788
3832 1 1 0.0 17.508015 17.656610 48.996183
3833 1 2 0.0 11.763362 20.867687 46.313689
3834 1 2 0.0 17.341526 17.692728 47.099187
3835 1 2 0.0 12.866105 19.034174 48.136339
3836 1 2 0.0 16.441019 16.655902 49.296502
3837 1 2 0.0 19.163365 17.140210 50.062273
3838 1 2 0.0 13.068749 18.925878 45.262022
3839 1 2 0.0 17.002757 19.110713 49.545593
3840 1 2 0.0 14.646268 20.504138 47.609912
3841 1 1 0.0 24.672123 29.974935 50.575480
3842 1 1 0.0 28.470939 29.594185 52.363151
3843 1 1 0.0 29.380032 23.658028 54.005824
3844 1 1 0.0 30.331972 26.147038 52.389069
3845 1 2 0.0 22.891109 31.456723 50.105660
3846 1 2 0.0 29.894109 26.647154 50.460136
3847 1 2 0.0 24.766817 28.892473 52.043244
3848 1 2 0.0 29.356638 25.185041 52.919595
3849 1 2 0.0 32.346325 24.978111 53.300562
3850 1 2 0.0 24.574566 29.291626 49.004588
3851 1 2 0.0 29.617407 27.735830 52.896697
3852 1 2 0.0 26.489730 30.166449 51.084415
3853 1 1 0.0 20.153513 28.088142 50.818081
3854 1 1 0.0 23.793037 28.134922 52.780370
3855 1 1 0.0 24.579898 22.454525 54.193987
3856 1 1 0.0 25.556597 24.846457 52.730643
3857 1 2 0.0 18.471746 29.405453 50.341555
3858 1 2 0.0 25.153385 25.156829 50.798994
3859 1 2 0.0 20.213504 27.117174 52.222882
3860 1 2 0.0 24.589216 23.866337 53.169058
3861 1 2 0.0 27.501812 23.914974 53.697593
3862 1 2 0.0 20.071066 27.288443 49.219118
3863 1 2 0.0 24.879928 26.408174 53.276889
3864 1 2 0.0 21.897954 28.456551 51.428700
3865 1 1 0.0 15.788133 25.883909 50.738076
3866 1 1 0.0 19.256114 26.338025 52.862723
3867 1 1 0.0 19.867626 20.953574 54.098291
3868 1 1 0.0 20.888989 23.242555 52.777608
3869 1 2 0.0 14.225234 27.028151 50.239716
3870 1 2 0.0 20.525779 23.382599 50.858150
3871 1 2 0.0 15.802837 25.015404 52.076450
3872 1 2 0.0 19.922599 22.248452 53.129579
3873 1 2 0.0 22.753133 22.545940 53.801241
3874 1 2 0.0 15.714594 24.992998 49.134220
3875 1 2 0.0 20.264282 24.754641 53.338668
3876 1 2 0.0 17.456605 26.421508 51.445100
3877 1 1 0.0 11.578492 23.357032 50.330179
3878 1 1 0.0 14.857880 24.208983 52.615651
3879 1 1 0.0 15.245176 19.148536 53.712398
3880 1 1 0.0 16.328015 21.338520 52.533062
3881 1 2 0.0 10.155020 24.318314 49.793405
3882 1 2 0.0 16.009712 21.328428 50.641509
3883 1 2 0.0 11.539075 22.577415 51.594209
3884 1 2 0.0 15.357697 20.328691 52.798554
3885 1 2 0.0 18.098044 20.878172 53.618378
3886 1 2 0.0 11.507908 22.399809 48.744281
3887 1 2 0.0 15.768908 22.779403 53.086111
3888 1 2 0.0 13.165188 24.062394 51.134697
3889 1 1 0.0 22.837997 33.391349 54.121094
3890 1 1 0.0 26.783098 33.018128 55.850080
3891 1 1 0.0 28.149064 27.343394 57.559747
3892 1 1 0.0 28.863765 29.682479 55.887941
3893 1 2 0.0 20.926108 34.806026 53.656343
3894 1 2 0.0 28.300154 30.118956 53.951910
3895 1 2 0.0 23.078031 32.403541 55.606693
3896 1 2 0.0 27.969768 28.792738 56.453898
3897 1 2 0.0 31.001740 28.531156 56.771577
3898 1 2 0.0 22.697551 32.688137 52.553594
3899 1 2 0.0 28.074311 31.234860 56.390883
3900 1 2 0.0 24.689017 33.562534 54.597327
3901 1 1 0.0 18.411903 31.619301 54.421463
3902 1 1 0.0 22.189786 31.709379 56.364587
3903 1 1 0.0 23.445872 26.226470 57.798770
3904 1 1 0.0 24.168714 28.514982 56.319675
3905 1 2 0.0 16.602703 32.871932 53.945851
3906 1 2 0.0 23.627212 28.766711 54.385206
3907 1 2 0.0 18.629866 30.724547 55.828569
3908 1 2 0.0 23.292065 27.580901 56.769831
3909 1 2 0.0 26.235672 27.614304 57.274906
3910 1 2 0.0 18.277558 30.794244 52.823131
3911 1 2 0.0 23.422683 30.047781 56.864073
3912 1 2 0.0 20.181863 31.989654 55.022905
3913 1 1 0.0 14.175523 29.454222 54.322408
3914 1 1 0.0 17.770327 29.984267 56.466143
3915 1 1 0.0 18.854289 24.731700 57.677207
3916 1 1 0.0 19.609876 26.964099 56.379036
3917 1 2 0.0 12.491434 30.537708 53.820866
3918 1 2 0.0 19.098913 27.051439 54.460848
3919 1 2 0.0 14.357886 28.642321 55.647706
3920 1 2 0.0 18.742027 25.990168 56.719832
3921 1 2 0.0 21.591095 26.309657 57.406304
3922 1 2 0.0 14.042293 28.533149 52.716464
3923 1 2 0.0 18.922689 28.455112 56.940963
3924 1 2 0.0 15.860655 30.014857 55.043178
3925 1 1 0.0 10.131967 26.889675 53.817383
3926 1 1 0.0 13.521896 27.849559 56.161458
3927 1 1 0.0 14.376807 22.850647 57.187008
3928 1 1 0.0 15.185819 25.033863 56.069942
3929 1 2 0.0 8.596532 27.795372 53.273120
3930 1 2 0.0 14.713238 24.978209 54.183830
3931 1 2 0.0 10.267352 26.144822 55.052079
3932 1 2 0.0 14.320804 24.017124 56.300606
3933 1 2 0.0 17.065165 24.626296 57.174482
3934 1 2 0.0 9.995220 25.897965 52.226541
3935 1 2 0.0 14.572385 26.462048 56.626629
3936 1 2 0.0 11.724781 27.639467 54.659481
3937 1 1 0.0 20.966102 36.789532 57.666709
3938 1 1 0.0 25.040622 36.419258 59.337009
3939 1 1 0.0 26.882360 31.018203 61.113669
3940 1 1 0.0 27.344959 33.199944 59.386812
3941 1 2 0.0 18.924935 38.136152 57.207027
3942 1 2 0.0 26.655563 33.570582 57.443684
3943 1 2 0.0 21.356803 35.900434 59.170142
3944 1 2 0.0 26.541312 32.386423 59.988201
3945 1 2 0.0 29.599998 32.066293 60.242593
3946 1 2 0.0 20.785116 36.066830 56.102599
3947 1 2 0.0 26.478460 34.714167 59.885069
3948 1 2 0.0 22.840962 36.936716 58.110239
3949 1 1 0.0 16.662714 35.146801 58.024845
3950 1 1 0.0 20.563102 35.274051 59.948804
3951 1 1 0.0 22.306860 29.996943 61.403552
3952 1 1 0.0 22.760675 32.176345 59.908706
3953 1 2 0.0 14.727693 36.335247 57.550147
3954 1 2 0.0 22.079919 32.368179 57.971417
3955 1 2 0.0 17.044663 34.331237 59.434256
3956 1 2 0.0 21.983851 31.291739 60.370603
3957 1 2 0.0 24.943063 31.305342 60.852219
3958 1 2 0.0 16.477769 34.296886 56.427144
3959 1 2 0.0 21.943760 33.679283 60.451257
3960 1 2 0.0 18.448960 35.514980 58.617110
3961 1 1 0.0 12.585527 33.035452 57.906739
3962 1 1 0.0 16.292309 33.633753 60.069562
3963 1 1 0.0 17.866718 28.517436 61.256123
3964 1 1 0.0 18.341050 30.689298 59.980465
3965 1 2 0.0 10.781871 34.060114 57.402017
3966 1 2 0.0 17.680443 30.723625 58.063545
3967 1 2 0.0 12.942249 32.282047 59.218963
3968 1 2 0.0 17.580914 29.738441 60.310086
3969 1 2 0.0 20.433278 30.074697 61.011367
3970 1 2 0.0 12.392851 32.084799 56.298709
3971 1 2 0.0 17.590494 32.159097 60.543259
3972 1 2 0.0 14.278423 33.614553 58.641256
3973 1 1 0.0 8.738248 30.447807 57.304587
3974 1 1 0.0 12.224884 31.506409 59.707266
3975 1 1 0.0 13.564957 26.569452 60.661618
3976 1 1 0.0 14.084352 28.743676 59.606821
3977 1 2 0.0 7.092485 31.301292 56.752836
3978 1 2 0.0 13.454676 28.643096 57.726151
3979 1 2 0.0 9.055822 29.738529 58.509949
3980 1 2 0.0 13.333895 27.722398 59.802657
3981 1 2 0.0 16.067197 28.385359 60.730587
3982 1 2 0.0 8.534531 29.422281 55.708800
3983 1 2 0.0 13.416339 30.159825 60.167147
3984 1 2 0.0 10.328623 31.237013 58.184266
3985 1 1 0.0 19.052130 40.167405 61.212323
3986 1 1 0.0 23.237136 39.794913 62.823939
3987 1 1 0.0 25.576352 34.681403 64.667592
3988 1 1 0.0 25.770382 36.697593 62.885684
3989 1 2 0.0 16.883246 41.444797 60.757710
3990 1 2 0.0 24.955429 37.000079 60.935458
3991 1 2 0.0 19.599382 39.381513 62.733591
3992 1 2 0.0 25.067057 35.964677 63.522504
3993 1 2 0.0 28.135336 35.581719 63.713609
3994 1 2 0.0 18.833528 39.425826 59.651604
3995 1 2 0.0 24.824014 38.171567 63.379255
3996 1 2 0.0 20.940119 40.286476 61.623151
3997 1 1 0.0 14.905083 38.670226 61.628227
3998 1 1 0.0 18.910251 38.827798 63.533020
3999 1 1 0.0 21.162367 33.765796 65.008335
4000 1 1 0.0 21.330419 35.829815 63.497738
4001 1 2 0.0 12.845999 39.795019 61.154443
4002 1 2 0.0 20.509459 35.960416 61.557629
4003 1 2 0.0 15.457716 37.937165 63.039942
4004 1 2 0.0 20.663453 34.998471 63.971376
4005 1 2 0.0 23.621318 34.987252 64.429532
4006 1 2 0.0 14.671038 37.796035 60.031157
4007 1 2 0.0 20.440758 37.301783 64.038441
4008 1 2 0.0 16.697312 39.031633 62.211316
4009 1 1 0.0 11.020723 36.628842 61.491070
4010 1 1 0.0 14.822968 37.286862 63.672982
4011 1 1 0.0 16.907488 32.311543 64.835040
4012 1 1 0.0 17.083562 34.418525 63.581893
4013 1 2 0.0 9.099457 37.596914 60.983167
4014 1 2 0.0 16.271184 34.399481 61.666243
4015 1 2 0.0 11.559316 35.936061 62.790220
4016 1 2 0.0 16.441233 33.493935 63.900339
4017 1 2 0.0 19.280108 33.841194 64.616430
4018 1 2 0.0 10.768676 35.649162 59.880953
4019 1 2 0.0 16.268738 35.866985 64.145554
4020 1 2 0.0 12.711489 37.221326 62.239333
4021 1 1 0.0 7.403356 34.034334 60.791791
4022 1 1 0.0 10.971391 35.181430 63.253073
4023 1 1 0.0 12.815268 30.306619 64.136228
4024 1 1 0.0 13.027778 32.469439 63.143701
4025 1 2 0.0 5.649418 34.839543 60.232552
4026 1 2 0.0 12.237702 32.324553 61.268473
4027 1 2 0.0 7.911444 33.361577 61.967819
4028 1 2 0.0 12.402032 31.446219 63.304709
4029 1 2 0.0 15.107660 32.156461 64.286692
4030 1 2 0.0 7.131320 32.975512 59.191059
4031 1 2 0.0 12.305248 33.874409 63.707665
4032 1 2 0.0 8.981806 34.857385 61.709051
4033 1 1 0.0 39.207083 -13.788891 22.015888
4034 1 1 0.0 40.595467 -14.772722 24.390410
4035 1 1 0.0 36.083243 -21.976041 25.363150
4036 1 1 0.0 39.425705 -18.989329 24.296903
4037 1 2 0.0 39.299136 -11.636229 21.495380
4038 1 2 0.0 40.408447 -18.164360 22.438948
4039 1 2 0.0 37.733262 -15.345964 23.305304
4040 1 2 0.0 37.774524 -20.157707 24.473116
4041 1 2 0.0 39.578727 -20.400129 25.486957
4042 1 2 0.0 39.497791 -14.347953 20.411089
4043 1 2 0.0 39.817776 -17.140804 24.851388
4044 1 2 0.0 40.274990 -13.791965 22.851846
4045 1 1 0.0 34.757206 -15.221408 21.680815
4046 1 1 0.0 36.102701 -16.202061 23.834755
4047 1 1 0.0 31.548472 -22.647510 25.042713
4048 1 1 0.0 34.950028 -20.167135 23.736875
4049 1 2 0.0 34.864194 -13.208037 21.195147
4050 1 2 0.0 36.025825 -19.553290 21.833432
4051 1 2 0.0 33.204014 -16.512180 23.062567
4052 1 2 0.0 33.269592 -21.104016 24.057885
4053 1 2 0.0 35.081713 -21.522485 24.821014
4054 1 2 0.0 35.123081 -15.840724 20.075539
4055 1 2 0.0 35.307156 -18.388289 24.301601
4056 1 2 0.0 35.827738 -15.295195 22.383198
4057 1 1 0.0 30.194895 -16.180242 21.791316
4058 1 1 0.0 31.523230 -17.151890 23.725077
4059 1 1 0.0 26.976465 -22.792111 25.205681
4060 1 1 0.0 30.408699 -20.821274 23.659874
4061 1 2 0.0 30.303603 -14.327300 21.324762
4062 1 2 0.0 31.554852 -20.403309 21.727725
4063 1 2 0.0 28.581355 -17.206128 23.260434
4064 1 2 0.0 28.707844 -21.527913 24.123598
4065 1 2 0.0 30.538012 -22.109197 24.647163
4066 1 2 0.0 30.622047 -16.837611 20.208329
4067 1 2 0.0 30.725780 -19.137673 24.212264
4068 1 2 0.0 31.275652 -16.322161 22.360873
4069 1 1 0.0 25.518306 -16.657630 22.354690
4070 1 1 0.0 26.858465 -17.630001 24.054129
4071 1 1 0.0 22.366394 -22.398081 25.862848
4072 1 1 0.0 25.802409 -20.957252 24.060818
4073 1 2 0.0 25.614857 -14.984990 21.892801
4074 1 2 0.0 26.996763 -20.721943 22.114847
4075 1 2 0.0 23.862495 -17.413708 23.912063
4076 1 2 0.0 24.088768 -21.424690 24.674589
4077 1 2 0.0 25.948716 -22.172810 24.953882
4078 1 2 0.0 25.992322 -17.329317 20.818241
4079 1 2 0.0 26.074555 -19.395336 24.577481
4080 1 2 0.0 26.619078 -16.874433 22.783401
4081 1 1 0.0 38.498558 -9.975396 25.561502
4082 1 1 0.0 40.175948 -10.976884 27.877339
4083 1 1 0.0 36.006901 -18.088639 28.917073
4084 1 1 0.0 39.225786 -15.161504 27.795775
4085 1 2 0.0 38.429992 -7.851213 25.046063
4086 1 2 0.0 40.086259 -14.351043 25.930722
4087 1 2 0.0 37.133572 -11.495627 26.868753
4088 1 2 0.0 37.585083 -16.293864 28.007419
4089 1 2 0.0 39.563027 -16.594593 28.957972
4090 1 2 0.0 38.732806 -10.541245 23.960094
4091 1 2 0.0 39.544265 -13.323487 28.345574
4092 1 2 0.0 39.679684 -9.992813 26.364758
4093 1 1 0.0 33.885288 -11.381825 25.284197
4094 1 1 0.0 35.516702 -12.328303 27.418972
4095 1 1 0.0 31.298347 -18.716680 28.647495
4096 1 1 0.0 34.572014 -16.262356 27.325907
4097 1 2 0.0 33.838466 -9.405701 24.799443
4098 1 2 0.0 35.514958 -15.666343 25.419643
4099 1 2 0.0 32.447092 -12.645898 26.668254
4100 1 2 0.0 32.904894 -17.186179 27.658657
4101 1 2 0.0 34.887539 -17.615921 28.398327
4102 1 2 0.0 34.185077 -12.016069 23.679552
4103 1 2 0.0 34.864173 -14.492414 27.888785
4104 1 2 0.0 35.065131 -11.441919 25.977403
4105 1 1 0.0 29.178968 -12.396234 25.375647
4106 1 1 0.0 30.785933 -13.284167 27.328497
4107 1 1 0.0 26.558469 -18.901478 28.784597
4108 1 1 0.0 29.863160 -16.923846 27.261302
4109 1 2 0.0 29.143729 -10.588456 24.905912
4110 1 2 0.0 30.869087 -16.526781 25.330422
4111 1 2 0.0 27.683455 -13.406079 26.831691
4112 1 2 0.0 28.176984 -17.639708 27.713851
4113 1 2 0.0 30.172815 -18.187105 28.252226
4114 1 2 0.0 29.531734 -13.076301 23.790573
4115 1 2 0.0 30.125294 -15.247495 27.814560
4116 1 2 0.0 30.363930 -12.497376 25.958951
4117 1 1 0.0 24.378071 -13.012201 25.841894
4118 1 1 0.0 25.984802 -13.850904 27.599936
4119 1 1 0.0 21.786566 -18.633136 29.337459
4120 1 1 0.0 25.099802 -17.150596 27.597698
4121 1 2 0.0 24.343722 -11.392062 25.372516
4122 1 2 0.0 26.149686 -16.938710 25.657169
4123 1 2 0.0 22.840357 -13.764522 27.369933
4124 1 2 0.0 23.400923 -17.650498 28.176641
4125 1 2 0.0 25.419775 -18.318686 28.509987
4126 1 2 0.0 24.770796 -13.714167 24.300500
4127 1 2 0.0 25.328381 -15.594031 28.117999
4128 1 2 0.0 25.576365 -13.160480 26.308186
4129 1 1 0.0 37.750670 -6.171244 29.107117
4130 1 1 0.0 39.701124 -7.191045 31.364268
4131 1 1 0.0 35.891317 -14.204011 32.470995
4132 1 1 0.0 38.970515 -11.340618 31.294646
4133 1 2 0.0 37.524149 -4.076386 28.596746
4134 1 2 0.0 39.706126 -10.547226 29.422496
4135 1 2 0.0 36.500701 -7.651853 30.432202
4136 1 2 0.0 37.350027 -12.434982 31.541722
4137 1 2 0.0 39.484733 -12.794513 32.428988
4138 1 2 0.0 37.928697 -6.744504 27.509099
4139 1 2 0.0 39.215873 -9.513966 31.839760
4140 1 2 0.0 39.035551 -6.204409 29.877670
4141 1 1 0.0 33.005472 -7.544116 28.887579
4142 1 1 0.0 34.906983 -8.458833 31.003188
4143 1 1 0.0 31.042749 -14.786237 32.252278
4144 1 1 0.0 34.171951 -12.360340 30.914939
4145 1 2 0.0 32.806684 -5.605047 28.403739
4146 1 2 0.0 34.979924 -11.783358 29.005854
4147 1 2 0.0 31.688571 -8.779933 30.273940
4148 1 2 0.0 32.528061 -13.269662 31.259430
4149 1 2 0.0 34.664378 -13.711883 31.975640
4150 1 2 0.0 33.240137 -8.193181 27.283565
4151 1 2 0.0 34.398639 -10.599742 31.475969
4152 1 2 0.0 34.285186 -7.592460 29.571609
4153 1 1 0.0 28.186608 -8.606633 28.959978
4154 1 1 0.0 30.056499 -9.415022 30.931917
4155 1 1 0.0 26.168766 -15.008845 32.363513
4156 1 1 0.0 29.328874 -13.025008 30.862731
4157 1 2 0.0 28.008445 -6.842785 28.487063
4158 1 2 0.0 30.192931 -12.648678 28.933120
4159 1 2 0.0 26.815537 -9.600100 30.402948
4160 1 2 0.0 27.667469 -13.749182 31.304105
4161 1 2 0.0 29.812241 -14.264609 31.857289
4162 1 2 0.0 28.466670 -9.308558 27.372817
4163 1 2 0.0 29.534586 -11.355927 31.416855
4164 1 2 0.0 29.466357 -8.669476 29.557029
4165 1 1 0.0 23.292869 -9.353709 29.329098
4166 1 1 0.0 25.150589 -10.064675 31.145744
4167 1 1 0.0 21.268801 -14.863806 32.812069
4168 1 1 0.0 24.441751 -13.338354 31.134577
4169 1 2 0.0 23.127821 -7.783797 28.852232
4170 1 2 0.0 25.345994 -13.148365 29.199490
4171 1 2 0.0 21.879782 -10.103159 30.827803
4172 1 2 0.0 22.767903 -13.870344 31.678692
4173 1 2 0.0 24.929065 -14.461229 32.066091
4174 1 2 0.0 23.606705 -10.084386 27.782759
4175 1 2 0.0 24.624314 -11.786743 31.658518
4176 1 2 0.0 24.579289 -9.436482 29.832970
4177 1 1 0.0 36.966255 -2.375763 32.652731
4178 1 1 0.0 39.174882 -3.414504 34.851198
4179 1 1 0.0 35.739716 -10.321928 36.024918
4180 1 1 0.0 38.664337 -7.526115 34.793518
4181 1 2 0.0 36.584108 -0.311055 32.147429
4182 1 2 0.0 39.272947 -6.752105 32.914270
4183 1 2 0.0 35.837004 -3.814176 33.995651
4184 1 2 0.0 37.073054 -8.580659 35.076025
4185 1 2 0.0 39.348942 -8.999444 35.900004
4186 1 2 0.0 37.088519 -2.956951 31.058104
4187 1 2 0.0 38.836673 -5.711663 35.333946
4188 1 2 0.0 38.346074 -2.425986 33.390582
4189 1 1 0.0 32.118328 -3.708147 32.490961
4190 1 1 0.0 34.275211 -4.593351 34.587405
4191 1 1 0.0 30.782127 -10.856149 35.857061
4192 1 1 0.0 33.751609 -8.460867 34.503971
4193 1 2 0.0 31.769261 -1.805959 32.008035
4194 1 2 0.0 34.422765 -7.904000 32.592066
4195 1 2 0.0 30.928563 -4.914261 33.879627
4196 1 2 0.0 32.140077 -9.354357 34.860202
4197 1 2 0.0 34.414593 -9.810167 35.552953
4198 1 2 0.0 32.288801 -4.371922 30.887578
4199 1 2 0.0 33.912226 -6.710036 35.063153
4200 1 2 0.0 33.489138 -3.746546 33.165814
4201 1 1 0.0 27.216118 -4.811840 32.544309
4202 1 1 0.0 29.334378 -5.544555 34.535336
4203 1 1 0.0 25.805033 -11.114377 35.942430
4204 1 1 0.0 28.804937 -9.124871 34.464159
4205 1 2 0.0 26.896076 -3.090752 32.068213
4206 1 2 0.0 29.525571 -8.769133 32.535818
4207 1 2 0.0 25.975473 -5.788611 33.974204
4208 1 2 0.0 27.177570 -9.856523 34.894358
4209 1 2 0.0 29.455914 -10.341744 35.462352
4210 1 2 0.0 27.424885 -5.534885 30.955062
4211 1 2 0.0 28.952929 -7.463074 35.019151
4212 1 2 0.0 28.581924 -4.838684 33.155107
4213 1 1 0.0 22.258736 -5.683095 32.816302
4214 1 1 0.0 24.353052 -6.271813 34.691551
4215 1 1 0.0 20.807999 -11.090449 36.286679
4216 1 1 0.0 23.824678 -9.520974 34.671457
4217 1 2 0.0 21.963391 -4.161241 32.331947
4218 1 2 0.0 24.582021 -9.351508 32.741811
4219 1 2 0.0 20.976400 -6.430484 34.285672
4220 1 2 0.0 22.185265 -10.084710 35.180744
4221 1 2 0.0 24.473473 -10.600712 35.622196
4222 1 2 0.0 22.495569 -6.441116 31.265018
4223 1 2 0.0 23.959228 -7.973919 35.199036
4224 1 2 0.0 23.624596 -5.703155 33.357755
4225 1 1 0.0 36.147264 1.411512 36.198346
4226 1 1 0.0 38.599890 0.353222 38.338127
4227 1 1 0.0 35.554348 -6.442231 39.578841
4228 1 1 0.0 38.310350 -3.717606 38.292390
4229 1 2 0.0 35.611576 3.445255 35.698113
4230 1 2 0.0 38.790147 -2.965119 36.406044
4231 1 2 0.0 35.144101 0.017725 37.559100
4232 1 2 0.0 36.756741 -4.730614 38.610328
4233 1 2 0.0 39.159209 -5.209077 39.371019
4234 1 2 0.0 36.214391 0.821954 34.607109
4235 1 2 0.0 38.409482 -1.916177 38.828133
4236 1 2 0.0 37.613648 1.342983 36.903494
4237 1 1 0.0 31.224246 0.126176 36.094343
4238 1 1 0.0 33.622530 -0.731650 38.171622
4239 1 1 0.0 30.516795 -6.926394 39.461843
4240 1 1 0.0 33.312222 -4.563782 38.093003
4241 1 2 0.0 30.726477 1.991641 35.612331
4242 1 2 0.0 33.844909 -4.028035 36.178277
4243 1 2 0.0 30.167147 -1.048868 37.485314
4244 1 2 0.0 31.741628 -5.440190 38.460975
4245 1 2 0.0 34.139829 -5.910627 39.130266
4246 1 2 0.0 31.331445 -0.552196 34.491591
4247 1 2 0.0 33.406093 -2.823132 38.650337
4248 1 2 0.0 32.677839 0.096012 36.760019
4249 1 1 0.0 26.266330 -1.012133 36.128641
4250 1 1 0.0 28.619190 -1.672834 38.138756
4251 1 1 0.0 25.465647 -7.218188 39.521346
4252 1 1 0.0 28.290719 -5.223516 38.065588
4253 1 2 0.0 25.805478 0.667326 35.649364
4254 1 2 0.0 28.866439 -4.888239 36.138515
4255 1 2 0.0 25.161799 -1.971902 37.545461
4256 1 2 0.0 26.706080 -5.961861 38.484611
4257 1 2 0.0 29.103571 -6.418531 39.067415
4258 1 2 0.0 26.405010 -1.755631 34.537306
4259 1 2 0.0 28.379822 -3.569007 38.621446
4260 1 2 0.0 27.709936 -1.005153 36.753185
4261 1 1 0.0 21.272943 -2.001007 36.303506
4262 1 1 0.0 23.590290 -2.472664 38.237358
4263 1 1 0.0 20.400600 -7.313319 39.761289
4264 1 1 0.0 23.246088 -5.698770 38.208337
4265 1 2 0.0 20.847863 -0.525108 35.811663
4266 1 2 0.0 23.855200 -5.548561 36.284133
4267 1 2 0.0 20.127207 -2.747091 37.743542
4268 1 2 0.0 21.649911 -6.293934 38.682796
4269 1 2 0.0 24.050829 -6.737323 39.178301
4270 1 2 0.0 21.434271 -2.785149 34.747278
4271 1 2 0.0 23.330963 -4.155864 38.739554
4272 1 2 0.0 22.710045 -1.960991 36.882540
4273 1 1 0.0 35.294958 5.190879 39.743960
4274 1 1 0.0 37.977853 4.112441 41.825056
4275 1 1 0.0 35.336726 -2.564814 43.132763
4276 1 1 0.0 37.910623 0.085169 41.791262
4277 1 2 0.0 34.607631 7.192843 39.248796
4278 1 2 0.0 38.260041 0.814112 39.897818
4279 1 2 0.0 34.423029 3.844053 41.122550
4280 1 2 0.0 36.402814 -0.884660 42.144631
4281 1 2 0.0 38.917917 -1.423203 42.842035
4282 1 2 0.0 35.307721 4.592569 38.156114
4283 1 2 0.0 37.936136 1.872753 42.322319
4284 1 2 0.0 36.839813 5.102837 40.416406
4285 1 1 0.0 30.323480 3.958912 39.697724
4286 1 1 0.0 32.949672 3.126403 41.755838
4287 1 1 0.0 30.246964 -2.996957 43.066626
4288 1 1 0.0 32.854614 -0.668981 41.682035
4289 1 2 0.0 29.678511 5.787801 39.216627
4290 1 2 0.0 33.247324 -0.155305 39.764489
4291 1 2 0.0 29.404374 2.816256 41.091000
4292 1 2 0.0 31.333173 -1.527112 42.061747
4293 1 2 0.0 33.841190 -2.013169 42.707579
4294 1 2 0.0 30.368319 3.266059 38.095604
4295 1 2 0.0 32.880994 1.061078 42.237521
4296 1 2 0.0 31.851836 3.935333 40.354225
4297 1 1 0.0 25.336488 2.792308 39.712972
4298 1 1 0.0 27.910691 2.200097 41.742176
4299 1 1 0.0 25.149517 -3.320356 43.100262
4300 1 1 0.0 27.785801 -1.320996 41.667017
4301 1 2 0.0 24.735928 4.431248 39.230515
4302 1 2 0.0 28.215152 -1.006059 39.741213
4303 1 2 0.0 24.373578 1.849840 41.116718
4304 1 2 0.0 26.252191 -2.065286 42.074864
4305 1 2 0.0 28.755035 -2.494986 42.672478
4306 1 2 0.0 25.406138 2.028974 38.119550
4307 1 2 0.0 27.814938 0.326229 42.223742
4308 1 2 0.0 26.849949 2.831020 40.351262
4309 1 1 0.0 20.333727 1.692137 39.790710
4310 1 1 0.0 22.861085 1.332552 41.783166
4311 1 1 0.0 20.044213 -3.532583 43.235899
4312 1 1 0.0 22.704317 -1.871949 41.745216
4313 1 2 0.0 19.779614 3.124152 39.291379
4314 1 2 0.0 23.163798 -1.739806 39.826454
4315 1 2 0.0 19.330278 0.946640 41.201412
4316 1 2 0.0 21.159765 -2.498241 42.184847
4317 1 2 0.0 23.659676 -2.871188 42.734406
4318 1 2 0.0 20.420750 0.882988 38.229537
4319 1 2 0.0 22.738109 -0.332778 42.280072
4320 1 2 0.0 21.834198 1.789692 40.407325
4321 1 1 0.0 34.410014 8.962499 43.289574
4322 1 1 0.0 37.309663 7.863316 45.311985
4323 1 1 0.0 35.087763 1.310388 46.686686
4324 1 1 0.0 37.466387 3.882364 45.290133
4325 1 2 0.0 33.572813 10.931860 42.799479
4326 1 2 0.0 37.684055 4.585821 43.389592
4327 1 2 0.0 33.674339 7.664919 44.685999
4328 1 2 0.0 36.012307 2.957315 45.678934
4329 1 2 0.0 38.626498 2.358301 46.313051
4330 1 2 0.0 34.369324 8.355101 41.705119
4331 1 2 0.0 37.417657 5.655272 45.816505
4332 1 2 0.0 36.025389 8.853758 43.929318
4333 1 1 0.0 29.416166 7.790094 43.301106
4334 1 1 0.0 32.257020 6.980877 45.340055
4335 1 1 0.0 29.972761 0.932171 46.671408
4336 1 1 0.0 32.379276 3.223597 45.271067
4337 1 2 0.0 28.625451 9.582548 42.820923
4338 1 2 0.0 32.630602 3.714288 43.350700
4339 1 2 0.0 28.640269 6.681117 44.696687
4340 1 2 0.0 30.914986 2.384908 45.662520
4341 1 2 0.0 33.519337 1.882266 46.284892
4342 1 2 0.0 29.399568 7.082882 41.699617
4343 1 2 0.0 32.337348 4.942654 45.824705
4344 1 2 0.0 31.011419 7.771481 43.948430
4345 1 1 0.0 24.426187 6.601387 43.297303
4346 1 1 0.0 27.208756 6.074214 45.345596
4347 1 1 0.0 24.855985 0.579073 46.679178
4348 1 1 0.0 27.289931 2.582660 45.268445
4349 1 2 0.0 23.687064 8.200914 42.811665
4350 1 2 0.0 27.571473 2.877369 43.343911
4351 1 2 0.0 23.610312 5.676519 44.687975
4352 1 2 0.0 25.815420 1.833152 45.665118
4353 1 2 0.0 28.410203 1.428881 46.277541
4354 1 2 0.0 24.427741 5.818794 41.701795
4355 1 2 0.0 27.258095 4.222607 45.826037
4356 1 2 0.0 26.001723 6.669782 43.949340
4357 1 1 0.0 19.440141 5.396111 43.277914
4358 1 1 0.0 22.164801 5.143722 45.328973
4359 1 1 0.0 19.737393 0.251655 46.710509
4360 1 1 0.0 22.198374 1.959363 45.282096
4361 1 2 0.0 18.757831 6.786313 42.771094
4362 1 2 0.0 22.506749 2.074580 43.368775
4363 1 2 0.0 18.584591 4.650506 44.659282
4364 1 2 0.0 20.713587 1.302233 45.686899
4365 1 2 0.0 23.299140 0.997614 46.290510
4366 1 2 0.0 19.453804 4.562991 41.711796
4367 1 2 0.0 22.179883 3.495226 45.820590
4368 1 2 0.0 20.996289 5.548725 43.932109
4369 1 1 0.0 33.492588 12.726408 46.835189
4370 1 1 0.0 36.595473 11.605873 48.798915
4371 1 1 0.0 34.807851 5.183403 50.240608
4372 1 1 0.0 36.978136 7.674041 48.789005
4373 1 2 0.0 32.507170 14.662318 46.350162
4374 1 2 0.0 37.062844 8.350116 46.881366
4375 1 2 0.0 32.898137 11.480344 48.249448
4376 1 2 0.0 35.585647 6.795359 49.213238
4377 1 2 0.0 38.285550 6.135488 49.784066
4378 1 2 0.0 33.399499 12.109627 45.254125
4379 1 2 0.0 36.854336 9.431420 49.310691
4380 1 2 0.0 35.170545 12.595781 47.442230
4381 1 1 0.0 28.502334 11.619729 46.904488
4382 1 1 0.0 31.544638 10.831783 48.924272
4383 1 1 0.0 29.694242 4.860994 50.276191
4384 1 1 0.0 31.886405 7.113978 48.860099
4385 1 2 0.0 27.567307 13.375883 46.425219
4386 1 2 0.0 31.995016 7.580789 46.936912
4387 1 2 0.0 27.874838 10.545716 48.302374
4388 1 2 0.0 30.487182 6.295882 49.263292
4389 1 2 0.0 33.174550 5.775702 49.862205
4390 1 2 0.0 28.425245 10.898285 45.303630
4391 1 2 0.0 31.775276 8.821612 49.411889
4392 1 2 0.0 30.156648 11.604470 47.542635
4393 1 1 0.0 23.535335 10.415083 46.881634
4394 1 1 0.0 26.513363 9.949514 48.949015
4395 1 1 0.0 24.584767 4.480080 50.258094
4396 1 1 0.0 26.803009 6.487436 48.869874
4397 1 2 0.0 22.658855 11.976314 46.392816
4398 1 2 0.0 26.935293 6.762026 46.946608
4399 1 2 0.0 22.871906 9.508115 48.259231
4400 1 2 0.0 25.395567 5.733429 49.255371
4401 1 2 0.0 28.069028 5.353067 49.882604
4402 1 2 0.0 23.469628 9.613782 45.284039
4403 1 2 0.0 26.709241 8.120120 49.428333
4404 1 2 0.0 25.165211 10.511122 47.547418
4405 1 1 0.0 18.591970 9.110866 46.765118
4406 1 1 0.0 21.501330 8.960825 48.874781
4407 1 1 0.0 19.479519 4.039352 50.185119
4408 1 1 0.0 21.727860 5.795117 48.818975
4409 1 2 0.0 17.782441 10.461355 46.250810
4410 1 2 0.0 21.883562 5.894517 46.911097
4411 1 2 0.0 17.889949 8.364469 48.117152
4412 1 2 0.0 20.310862 5.107434 49.188951
4413 1 2 0.0 22.968856 4.869054 49.846615
4414 1 2 0.0 18.532997 8.254746 45.194055
4415 1 2 0.0 21.656062 7.328118 49.361108
4416 1 2 0.0 20.196159 9.316075 47.456894
4417 1 1 0.0 32.542318 16.482522 50.380803
4418 1 1 0.0 35.834710 15.340008 52.285844
4419 1 1 0.0 34.496894 9.054224 53.794531
4420 1 1 0.0 36.445670 11.460175 52.287877
4421 1 2 0.0 31.410264 18.384096 49.900845
4422 1 2 0.0 36.396343 12.106986 50.373140
4423 1 2 0.0 32.094096 15.290261 51.812897
4424 1 2 0.0 35.122690 10.629456 52.747541
4425 1 2 0.0 37.894892 9.908342 53.255082
4426 1 2 0.0 32.398048 15.856097 48.803130
4427 1 2 0.0 36.245755 13.201140 52.804877
4428 1 2 0.0 34.274810 16.328803 50.955142
4429 1 1 0.0 27.581913 15.447800 50.507870
4430 1 1 0.0 30.812280 14.679077 52.508489
4431 1 1 0.0 29.411392 8.789512 53.880974
4432 1 1 0.0 31.375922 11.002150 52.449131
4433 1 2 0.0 26.504004 17.167785 50.029515
4434 1 2 0.0 31.340542 11.444193 50.523123
4435 1 2 0.0 27.108065 14.410049 51.908060
4436 1 2 0.0 30.049722 10.205806 52.864065
4437 1 2 0.0 32.806743 9.667132 53.439518
4438 1 2 0.0 27.445314 14.712259 48.907643
4439 1 2 0.0 31.194606 12.697929 52.999073
4440 1 2 0.0 29.287357 15.434262 51.136841
4441 1 1 0.0 22.664147 14.233446 50.465966
4442 1 1 0.0 25.824592 13.826012 52.552435
4443 1 1 0.0 24.335934 8.382668 53.837010
4444 1 1 0.0 26.325077 10.393340 52.471302
4445 1 2 0.0 21.651594 15.757531 49.973966
4446 1 2 0.0 26.306624 10.647914 50.549306
4447 1 2 0.0 22.158655 13.344687 51.830488
4448 1 2 0.0 24.992699 9.635554 52.845624
4449 1 2 0.0 27.731525 9.277573 53.487667
4450 1 2 0.0 22.531925 13.413969 48.866283
4451 1 2 0.0 26.168449 12.018778 53.030628
4452 1 2 0.0 24.340547 14.355071 51.145496
4453 1 1 0.0 17.789716 12.836519 50.252322
4454 1 1 0.0 20.871081 12.783934 52.420588
4455 1 1 0.0 19.270746 7.830520 53.659729
4456 1 1 0.0 21.292937 9.635333 52.355855
4457 1 2 0.0 16.854106 14.149462 49.730525
4458 1 2 0.0 21.294285 9.720014 50.453418
4459 1 2 0.0 17.246960 12.088648 51.575021
4460 1 2 0.0 19.951763 8.917379 52.691002
4461 1 2 0.0 22.668934 8.743140 53.402720
4462 1 2 0.0 17.658620 11.958330 48.676315
4463 1 2 0.0 21.166965 11.165942 52.901626
4464 1 2 0.0 19.434249 13.091837 50.981679
4465 1 1 0.0 31.558304 20.230626 53.926417
4466 1 1 0.0 35.026024 19.065478 55.772773
4467 1 1 0.0 34.154297 12.922809 57.348453
4468 1 1 0.0 35.868080 15.240651 55.786749
4469 1 2 0.0 30.281128 22.096925 53.451529
4470 1 2 0.0 35.683769 15.856303 53.864914
4471 1 2 0.0 31.261426 19.094517 55.376346
4472 1 2 0.0 34.622709 14.459525 56.281844
4473 1 2 0.0 37.453542 13.676778 56.726098
4474 1 2 0.0 31.364262 19.594330 52.352135
4475 1 2 0.0 35.590759 16.964266 56.299063
4476 1 2 0.0 33.337039 20.052572 54.468054
4477 1 1 0.0 26.654722 19.274263 54.111251
4478 1 1 0.0 30.059369 18.522655 56.092705
4479 1 1 0.0 29.124129 12.717717 57.485756
4480 1 1 0.0 30.847462 14.888068 56.038162
4481 1 2 0.0 25.435385 20.958212 53.633811
4482 1 2 0.0 30.666850 15.304446 54.109335
4483 1 2 0.0 26.339911 18.274109 55.513747
4484 1 2 0.0 29.602413 14.114658 56.464837
4485 1 2 0.0 32.415462 13.556516 57.016831
4486 1 2 0.0 26.459649 18.524773 52.511656
4487 1 2 0.0 30.594863 16.571536 56.586257
4488 1 2 0.0 28.403137 19.260769 54.731046
4489 1 1 0.0 21.813162 18.056605 54.050297
4490 1 1 0.0 25.142637 17.703742 56.155855
4491 1 1 0.0 24.109915 12.286868 57.415927
4492 1 1 0.0 25.856318 14.300394 56.072731
4493 1 2 0.0 20.665928 19.544743 53.555117
4494 1 2 0.0 25.685595 14.535055 54.152004
4495 1 2 0.0 21.471272 17.186375 55.401745
4496 1 2 0.0 24.607156 13.539563 56.435878
4497 1 2 0.0 27.397766 13.202406 57.092730
4498 1 2 0.0 21.615091 17.219472 52.448527
4499 1 2 0.0 25.635928 15.918611 56.632924
4500 1 2 0.0 23.528066 18.201700 54.743574
4501 1 1 0.0 17.034640 16.573370 53.739526
4502 1 1 0.0 20.275015 16.613225 55.966395
4503 1 1 0.0 19.112012 11.625224 57.134340
4504 1 1 0.0 20.894337 13.480102 55.892734
4505 1 2 0.0 15.974277 17.851037 53.210241
4506 1 2 0.0 20.739504 13.551166 53.995739
4507 1 2 0.0 16.657087 15.823333 55.032891
4508 1 2 0.0 19.637164 12.732163 56.193054
4509 1 2 0.0 22.399975 12.619925 56.958824
4510 1 2 0.0 16.831713 15.674006 52.158574
4511 1 2 0.0 20.713480 15.008825 56.442144
4512 1 2 0.0 18.711630 16.876248 54.506464
4513 1 1 0.0 30.539027 23.970360 57.472032
4514 1 1 0.0 34.167179 22.781879 59.259703
4515 1 1 0.0 33.778919 16.789078 60.902376
4516 1 1 0.0 35.243668 19.015257 59.285620
4517 1 2 0.0 29.118193 25.800370 57.002212
4518 1 2 0.0 34.923552 19.597808 57.356688
4519 1 2 0.0 30.398811 22.892849 58.939796
4520 1 2 0.0 34.084336 18.285420 59.816147
4521 1 2 0.0 36.959641 17.440633 60.197114
4522 1 2 0.0 30.296860 23.323999 55.901140
4523 1 2 0.0 34.887352 20.720515 59.793249
4524 1 2 0.0 32.355310 23.766666 57.980967
4525 1 1 0.0 25.720456 23.099048 57.714633
4526 1 1 0.0 29.284945 22.362343 59.676922
4527 1 1 0.0 28.832293 16.645599 61.090539
4528 1 1 0.0 30.300352 18.771648 59.627194
4529 1 2 0.0 24.361190 24.747090 57.238107
4530 1 2 0.0 29.973288 19.161442 57.695546
4531 1 2 0.0 25.570315 22.137884 59.119434
4532 1 2 0.0 29.144891 18.022400 60.065610
4533 1 2 0.0 31.999847 17.443778 60.594144
4534 1 2 0.0 25.468024 22.335769 56.115669
4535 1 2 0.0 29.975226 20.442317 60.173441
4536 1 2 0.0 27.503309 23.083839 58.325251
4537 1 1 0.0 20.983290 21.884775 57.634628
4538 1 1 0.0 24.467814 21.582762 59.759275
4539 1 1 0.0 23.907531 16.192739 60.994843
4540 1 1 0.0 25.397078 18.208642 59.674159
4541 1 2 0.0 19.702909 23.338243 57.136267
4542 1 2 0.0 25.072466 18.423491 57.754702
4543 1 2 0.0 20.810948 21.033415 58.973001
4544 1 2 0.0 24.239580 17.445525 60.026131
4545 1 2 0.0 27.067888 17.127577 60.697793
4546 1 2 0.0 20.719952 21.030502 56.030772
4547 1 2 0.0 25.112030 19.819669 60.235220
4548 1 2 0.0 22.728322 22.051134 58.341652
4549 1 1 0.0 16.328864 20.321924 57.226730
4550 1 1 0.0 19.714727 20.448985 59.512203
4551 1 1 0.0 19.005122 15.423591 60.608950
4552 1 1 0.0 20.533426 17.329597 59.429614
4553 1 2 0.0 15.145320 21.566736 56.689956
4554 1 2 0.0 20.220396 17.388167 57.538061
4555 1 2 0.0 16.122775 19.569008 58.490761
4556 1 2 0.0 19.368710 16.551967 59.695106
4557 1 2 0.0 22.163112 16.499507 60.514929
4558 1 2 0.0 16.054157 19.402254 55.640833
4559 1 2 0.0 20.297138 18.856984 59.982663
4560 1 2 0.0 18.030096 20.669702 58.031248
4561 1 1 0.0 29.482211 27.701184 61.017646
4562 1 1 0.0 33.254846 26.488608 62.746632
4563 1 1 0.0 33.368976 20.652904 64.456298
4564 1 1 0.0 34.569802 22.783663 62.784492
4565 1 2 0.0 27.919134 29.493786 60.552895
4566 1 2 0.0 34.113198 23.331095 60.848462
4567 1 2 0.0 29.504283 26.684869 62.503245
4568 1 2 0.0 33.505438 22.106907 63.350450
4569 1 2 0.0 36.410292 21.199655 63.668129
4570 1 2 0.0 29.193878 27.044604 59.450145
4571 1 2 0.0 34.132520 24.469459 63.287435
4572 1 2 0.0 31.326754 27.470452 61.493879
4573 1 1 0.0 24.778657 26.922044 61.318015
4574 1 1 0.0 28.487580 26.197883 63.261139
4575 1 1 0.0 28.535636 20.573140 64.695321
4576 1 1 0.0 29.733541 22.652758 63.216226
4577 1 2 0.0 23.281035 28.534314 60.842403
4578 1 2 0.0 29.258813 23.015010 61.281757
4579 1 2 0.0 24.799179 26.001354 62.725121
4580 1 2 0.0 28.676588 21.928970 63.666383
4581 1 2 0.0 31.558555 21.328803 64.171458
4582 1 2 0.0 24.470091 26.145157 59.719682
4583 1 2 0.0 29.334458 24.310096 63.760625
4584 1 2 0.0 26.586852 26.903250 61.919457
4585 1 1 0.0 20.175894 25.718281 61.218959
4586 1 1 0.0 23.800598 25.463157 63.362694
4587 1 1 0.0 23.730070 20.100371 64.573759
4588 1 1 0.0 24.947892 22.118150 63.275588
4589 1 2 0.0 18.764096 27.138464 60.717418
4590 1 2 0.0 24.467651 22.313290 61.357399
4591 1 2 0.0 20.179459 24.886159 62.544258
4592 1 2 0.0 23.890966 21.353551 63.616384
4593 1 2 0.0 26.742105 21.053105 64.302856
4594 1 2 0.0 19.847775 24.847382 59.613016
4595 1 2 0.0 24.597295 23.722029 63.837515
4596 1 2 0.0 21.942149 25.903554 61.939729
4597 1 1 0.0 15.675572 24.082936 60.713934
4598 1 1 0.0 19.192594 24.291644 63.058010
4599 1 1 0.0 18.952899 19.225823 64.083560
4600 1 1 0.0 20.212323 21.184083 62.966493
4601 1 2 0.0 14.370733 25.297531 60.169672
4602 1 2 0.0 19.738827 21.231321 61.080382
4603 1 2 0.0 15.647671 23.326393 61.948631
4604 1 2 0.0 19.148963 20.377067 63.197157
4605 1 2 0.0 21.960117 20.382041 64.071034
4606 1 2 0.0 15.328834 23.143809 59.123092
4607 1 2 0.0 19.920249 22.710748 63.523181
4608 1 2 0.0 17.392331 24.472791 61.556033
4609 1 1 0.0 28.384588 31.422322 64.563261
4610 1 1 0.0 32.284250 30.184802 66.233561
4611 1 1 0.0 32.921862 24.514102 68.010221
4612 1 1 0.0 33.842656 26.545390 66.283364
4613 1 2 0.0 26.680626 33.176248 64.103578
4614 1 2 0.0 33.249053 27.055563 64.340236
4615 1 2 0.0 28.575025 30.470020 66.066694
4616 1 2 0.0 32.882914 25.923649 66.884753
4617 1 2 0.0 35.801271 24.953476 67.139145
4618 1 2 0.0 28.052473 30.755422 62.999150
4619 1 2 0.0 33.321928 28.210482 66.781621
4620 1 2 0.0 30.247256 31.163024 65.006791
4621 1 1 0.0 23.828672 30.743097 64.921397
4622 1 1 0.0 27.665227 30.028905 66.845355
4623 1 1 0.0 28.233794 24.500315 68.300104
4624 1 1 0.0 29.145506 26.531208 66.805258
4625 1 2 0.0 22.194372 32.319730 64.446699
4626 1 2 0.0 28.521904 26.864899 64.867969
4627 1 2 0.0 24.026370 29.864493 66.330807
4628 1 2 0.0 28.196679 25.834277 67.267155
4629 1 2 0.0 31.089631 25.211419 67.748771
4630 1 2 0.0 23.465345 29.952810 63.323695
4631 1 2 0.0 28.670777 28.174620 67.347809
4632 1 2 0.0 25.652304 30.718678 65.513662
4633 1 1 0.0 19.392930 29.557585 64.803291
4634 1 1 0.0 23.141667 29.345050 66.966114
4635 1 1 0.0 23.579410 24.009898 68.152675
4636 1 1 0.0 24.509538 26.029016 66.877017
4637 1 2 0.0 17.851715 30.946024 64.298569
4638 1 2 0.0 23.871756 26.204551 64.960097
4639 1 2 0.0 19.579352 28.745110 66.115515
4640 1 2 0.0 23.562768 25.263796 67.206637
4641 1 2 0.0 26.420730 24.979017 67.907919
4642 1 2 0.0 19.000396 28.670578 63.195260
4643 1 2 0.0 24.092493 27.625799 67.439811
4644 1 2 0.0 21.170737 29.759224 65.537807
4645 1 1 0.0 15.079331 27.857489 64.201138
4646 1 1 0.0 18.712020 28.141818 66.603817
4647 1 1 0.0 18.959462 23.032208 67.558170
4648 1 1 0.0 19.934108 25.043945 66.503373
4649 1 2 0.0 13.655519 29.044811 63.649388
4650 1 2 0.0 19.297533 25.081079 64.622703
4651 1 2 0.0 15.237007 27.096525 65.406501
4652 1 2 0.0 18.981652 24.207870 66.699209
4653 1 2 0.0 21.793568 24.267752 67.627139
4654 1 2 0.0 14.659919 26.899732 62.605352
4655 1 2 0.0 19.586143 26.570588 67.063699
4656 1 2 0.0 16.802180 28.286360 65.080818
4657 1 1 0.0 27.241507 35.132669 68.108875
4658 1 1 0.0 31.248594 33.869233 69.720490
4659 1 1 0.0 32.433867 28.372412 71.564143
4660 1 1 0.0 33.056783 30.299754 69.782236
4661 1 2 0.0 25.397931 36.846442 67.654262
4662 1 2 0.0 32.325908 30.770358 67.832010
4663 1 2 0.0 27.607020 34.247507 69.630143
4664 1 2 0.0 32.212346 29.735166 70.419056
4665 1 2 0.0 35.126565 28.701572 70.610161
4666 1 2 0.0 26.868598 34.455420 66.548156
4667 1 2 0.0 32.449401 31.942708 70.275807
4668 1 2 0.0 29.110952 34.843094 68.519703
4669 1 1 0.0 22.869566 34.561986 68.524778
4670 1 1 0.0 26.814969 33.854881 70.429572
4671 1 1 0.0 27.926250 28.427087 71.904887
4672 1 1 0.0 28.534077 30.406724 70.394290
4673 1 2 0.0 21.100419 36.103123 68.050995
4674 1 2 0.0 27.760386 30.710754 68.454180
4675 1 2 0.0 23.251692 33.727263 69.936494
4676 1 2 0.0 27.703990 29.738194 70.867928
4677 1 2 0.0 30.590290 29.091384 71.326084
4678 1 2 0.0 22.453068 33.758545 66.927709
4679 1 2 0.0 27.981646 32.035530 70.934993
4680 1 2 0.0 24.697585 34.529667 69.107867
4681 1 1 0.0 18.637183 33.403350 68.387622
4682 1 1 0.0 22.491988 33.228616 70.569534
4683 1 1 0.0 23.458227 27.921507 71.731591
4684 1 1 0.0 24.083123 29.941378 70.478445
4685 1 2 0.0 16.968942 34.761804 67.879719
4686 1 2 0.0 23.285644 30.097417 68.562795
4687 1 2 0.0 19.014256 32.610985 69.686771
4688 1 2 0.0 23.257052 29.176486 70.796891
4689 1 2 0.0 26.104207 28.905352 71.512982
4690 1 2 0.0 18.180427 32.500757 66.777505
4691 1 2 0.0 23.598726 31.531137 71.042106
4692 1 2 0.0 20.415787 33.618518 69.135885
4693 1 1 0.0 14.546645 31.647128 67.688343
4694 1 1 0.0 18.277854 32.000383 70.149625
4695 1 1 0.0 19.030682 26.843163 71.032780
4696 1 1 0.0 19.703166 28.909734 70.040253
4697 1 2 0.0 13.006810 32.810556 67.129103
4698 1 2 0.0 18.900415 28.938078 68.165024
4699 1 2 0.0 14.898232 30.880876 68.864370
4700 1 2 0.0 18.872087 28.044954 70.201261
4701 1 2 0.0 21.667140 28.156960 71.183243
4702 1 2 0.0 14.053354 30.671539 66.087611
4703 1 2 0.0 19.299555 30.437179 70.604217
4704 1 2 0.0 16.265123 32.111616 68.605603
4705 1 1 0.0 35.326240 -21.894878 28.912440
4706 1 1 0.0 36.470669 -23.154170 31.286961
4707 1 1 0.0 30.515438 -29.219084 32.259702
4708 1 1 0.0 34.421809 -27.020730 31.193455
4709 1 2 0.0 35.878899 -19.812332 28.391932
4710 1 2 0.0 35.558920 -26.426309 29.335500
4711 1 2 0.0 33.552151 -23.098720 30.201855
4712 1 2 0.0 32.558065 -27.806837 31.369668
4713 1 2 0.0 34.267973 -28.431442 32.383508
4714 1 2 0.0 35.489969 -22.503363 27.307640
4715 1 2 0.0 35.202092 -25.299706 31.747940
4716 1 2 0.0 36.368518 -22.127449 29.748398
4717 1 1 0.0 30.672449 -22.337312 28.577367
4718 1 1 0.0 31.775676 -23.584280 30.731307
4719 1 1 0.0 25.942341 -28.900013 31.939265
4720 1 1 0.0 29.797578 -27.208862 30.633427
4721 1 2 0.0 31.209751 -20.394011 28.091698
4722 1 2 0.0 30.980181 -26.840633 28.729983
4723 1 2 0.0 28.878092 -23.264016 29.959119
4724 1 2 0.0 27.955028 -27.762595 30.954437
4725 1 2 0.0 29.634824 -28.560832 31.717565
4726 1 2 0.0 30.896635 -23.020801 26.972090
4727 1 2 0.0 30.528756 -25.548376 31.198153
4728 1 2 0.0 31.702090 -22.639506 29.279750
4729 1 1 0.0 26.010681 -22.292967 28.687867
4730 1 1 0.0 27.099085 -23.527451 30.621629
4731 1 1 0.0 21.446140 -28.058387 32.102233
4732 1 1 0.0 25.221802 -26.871456 30.556425
4733 1 2 0.0 26.515176 -20.506715 28.221313
4734 1 2 0.0 26.431009 -26.709652 28.624276
4735 1 2 0.0 24.214330 -22.948005 30.156986
4736 1 2 0.0 23.408805 -27.195940 31.020150
4737 1 2 0.0 25.071226 -28.157066 31.543715
4738 1 2 0.0 26.286532 -23.026792 27.104881
4739 1 2 0.0 25.893395 -25.295380 31.108816
4740 1 2 0.0 27.035662 -22.663899 29.257425
4741 1 1 0.0 21.340804 -21.753865 29.251242
4742 1 1 0.0 22.440600 -22.991597 30.950681
4743 1 1 0.0 17.028554 -26.682540 32.759400
4744 1 1 0.0 20.693973 -26.014039 30.957370
4745 1 2 0.0 21.794666 -20.141087 28.789352
4746 1 2 0.0 21.910989 -26.040981 29.011399
4747 1 2 0.0 19.561170 -22.136316 30.808615
4748 1 2 0.0 18.919911 -26.102166 31.571141
4749 1 2 0.0 20.575551 -27.232629 31.850434
4750 1 2 0.0 21.659345 -22.511748 27.714792
4751 1 2 0.0 21.295522 -24.547143 31.474033
4752 1 2 0.0 22.369234 -22.202233 29.679953
4753 1 1 0.0 35.454068 -18.018229 32.458054
4754 1 1 0.0 36.876951 -19.356892 34.773891
4755 1 1 0.0 31.276557 -25.406156 35.813625
4756 1 1 0.0 35.049434 -23.239421 34.692326
4757 1 2 0.0 35.843741 -15.928968 31.942615
4758 1 2 0.0 36.064014 -22.632885 32.827274
4759 1 2 0.0 33.794190 -19.209486 33.765305
4760 1 2 0.0 33.203665 -23.992605 34.903971
4761 1 2 0.0 35.070718 -24.711502 35.854524
4762 1 2 0.0 35.561198 -18.621205 30.856645
4763 1 2 0.0 35.755586 -21.512839 35.242126
4764 1 2 0.0 36.603835 -18.289146 33.261310
4765 1 1 0.0 30.646313 -18.400059 32.180749
4766 1 1 0.0 32.036121 -19.675115 34.315523
4767 1 1 0.0 26.543076 -25.007314 35.544047
4768 1 1 0.0 30.267814 -23.314112 34.222459
4769 1 2 0.0 31.025394 -16.460071 31.695994
4770 1 2 0.0 31.316838 -22.934739 32.316195
4771 1 2 0.0 28.970003 -19.325409 33.564805
4772 1 2 0.0 28.441075 -23.857955 34.555209
4773 1 2 0.0 30.284985 -24.703860 35.294878
4774 1 2 0.0 30.802750 -19.083921 30.576103
4775 1 2 0.0 30.933628 -21.648356 34.785337
4776 1 2 0.0 31.785653 -18.712380 32.873955
4777 1 1 0.0 25.831956 -18.379033 32.272199
4778 1 1 0.0 27.210471 -19.591656 34.225049
4779 1 1 0.0 21.874287 -24.168858 35.681149
4780 1 1 0.0 25.526849 -22.947873 34.157854
4781 1 2 0.0 26.186160 -16.605944 31.802464
4782 1 2 0.0 26.594615 -22.776336 32.226974
4783 1 2 0.0 24.154321 -19.043777 33.728243
4784 1 2 0.0 23.726205 -23.284520 34.610403
4785 1 2 0.0 25.557701 -24.248164 35.148778
4786 1 2 0.0 26.030281 -19.119034 30.687125
4787 1 2 0.0 26.143221 -21.367065 34.711111
4788 1 2 0.0 26.967471 -18.732541 32.855503
4789 1 1 0.0 21.010887 -17.948547 32.738446
4790 1 1 0.0 22.399757 -19.113042 34.496488
4791 1 1 0.0 17.271635 -22.880972 36.234010
4792 1 1 0.0 20.826112 -22.145340 34.494250
4793 1 2 0.0 21.325622 -16.358902 32.269068
4794 1 2 0.0 21.896999 -22.164102 32.553720
4795 1 2 0.0 19.347397 -18.352717 34.266485
4796 1 2 0.0 19.059487 -22.268346 35.073192
4797 1 2 0.0 20.887499 -23.354905 35.406538
4798 1 2 0.0 21.243528 -18.718526 31.197052
4799 1 2 0.0 21.383962 -20.674304 35.014551
4800 1 2 0.0 22.149290 -18.350958 33.204737
4801 1 1 0.0 35.541445 -14.142242 36.003669
4802 1 1 0.0 37.227071 -15.557491 38.260820
4803 1 1 0.0 31.998756 -21.587501 39.367547
4804 1 1 0.0 35.621508 -19.452990 38.191198
4805 1 2 0.0 35.770553 -12.047666 35.493298
4806 1 2 0.0 36.510477 -18.836281 36.319048
4807 1 2 0.0 34.002412 -15.319528 37.328754
4808 1 2 0.0 33.803651 -20.173411 38.438274
4809 1 2 0.0 35.811160 -20.983434 39.325540
4810 1 2 0.0 35.592077 -14.740370 34.405651
4811 1 2 0.0 36.253806 -17.721788 38.736312
4812 1 2 0.0 36.789156 -14.450843 36.774222
4813 1 1 0.0 30.612061 -14.462940 35.784131
4814 1 1 0.0 32.272478 -15.765040 37.899740
4815 1 1 0.0 27.138383 -21.113817 39.148830
4816 1 1 0.0 30.715922 -19.417322 37.811491
4817 1 2 0.0 30.834763 -12.526471 35.300290
4818 1 2 0.0 31.629039 -19.027519 35.902406
4819 1 2 0.0 29.060283 -15.386769 37.170492
4820 1 2 0.0 28.914988 -19.951996 38.155982
4821 1 2 0.0 30.906295 -20.843124 38.872191
4822 1 2 0.0 30.701709 -15.147276 34.180117
4823 1 2 0.0 31.315786 -17.746617 38.372521
4824 1 2 0.0 31.851462 -14.785254 36.468160
4825 1 1 0.0 25.677449 -14.464702 35.856530
4826 1 1 0.0 27.329844 -15.656163 37.828468
4827 1 1 0.0 22.330497 -20.283458 39.260065
4828 1 1 0.0 25.843189 -19.025331 37.759283
4829 1 2 0.0 25.882627 -12.703792 35.383615
4830 1 2 0.0 26.767945 -18.843547 35.829672
4831 1 2 0.0 24.124867 -15.140203 37.299499
4832 1 2 0.0 24.064951 -19.375422 38.200656
4833 1 2 0.0 26.048778 -20.339861 38.753841
4834 1 2 0.0 25.800070 -15.210422 34.269369
4835 1 2 0.0 26.402895 -17.439495 38.313407
4836 1 2 0.0 26.913769 -14.801184 36.453581
4837 1 1 0.0 20.737524 -14.142303 36.225650
4838 1 1 0.0 22.398975 -15.236001 38.042295
4839 1 1 0.0 17.576270 -19.088462 39.708620
4840 1 1 0.0 21.002965 -18.280764 38.031129
4841 1 2 0.0 20.913819 -12.573614 35.748783
4842 1 2 0.0 21.926909 -18.289603 36.096042
4843 1 2 0.0 19.196364 -14.570459 37.724354
4844 1 2 0.0 19.253888 -18.440489 38.575244
4845 1 2 0.0 21.237500 -19.482146 38.962643
4846 1 2 0.0 20.886949 -14.923363 34.679311
4847 1 2 0.0 21.514810 -16.804675 38.555069
4848 1 2 0.0 21.976075 -14.499683 36.729522
4849 1 1 0.0 35.591286 -10.266871 39.549283
4850 1 1 0.0 37.524977 -11.756117 41.747749
4851 1 1 0.0 32.685232 -17.763589 42.921470
4852 1 1 0.0 36.142494 -15.661848 41.690070
4853 1 2 0.0 35.661924 -8.168285 39.043981
4854 1 2 0.0 36.903265 -15.036767 39.810822
4855 1 2 0.0 34.179220 -11.428899 40.892203
4856 1 2 0.0 34.361718 -16.349659 41.972577
4857 1 2 0.0 36.494371 -17.247901 42.796555
4858 1 2 0.0 35.585753 -10.860754 37.954656
4859 1 2 0.0 36.700854 -13.926864 42.230498
4860 1 2 0.0 36.928048 -10.612540 40.287134
4861 1 1 0.0 30.570277 -10.525943 39.387512
4862 1 1 0.0 32.486441 -11.854119 41.483957
4863 1 1 0.0 27.728707 -17.219586 42.753612
4864 1 1 0.0 31.143678 -15.518655 41.400523
4865 1 2 0.0 30.638285 -8.593189 38.904586
4866 1 2 0.0 31.918854 -15.119086 39.488618
4867 1 2 0.0 29.149049 -11.448095 40.776179
4868 1 2 0.0 29.377750 -16.044824 41.756754
4869 1 2 0.0 31.501103 -16.978931 42.449505
4870 1 2 0.0 30.594073 -11.210846 37.784130
4871 1 2 0.0 31.676918 -13.843286 41.959705
4872 1 2 0.0 31.900784 -10.858128 40.062366
4873 1 1 0.0 25.545417 -10.550003 39.440861
4874 1 1 0.0 27.456641 -11.720950 41.431888
4875 1 1 0.0 22.812463 -16.401849 42.838981
4876 1 1 0.0 26.169916 -15.103747 41.360711
4877 1 2 0.0 25.602841 -8.800353 38.964765
4878 1 2 0.0 26.950175 -14.911241 39.432369
4879 1 2 0.0 24.123800 -11.237235 40.870756
4880 1 2 0.0 24.423312 -15.468457 41.790910
4881 1 2 0.0 26.544082 -16.432110 42.358904
4882 1 2 0.0 25.593870 -11.301022 37.851613
4883 1 2 0.0 26.671685 -13.512616 41.915702
4884 1 2 0.0 26.873520 -10.869827 40.051659
4885 1 1 0.0 20.516642 -10.335198 39.712854
4886 1 1 0.0 22.435437 -11.360368 41.588103
4887 1 1 0.0 17.937401 -15.304266 43.183231
4888 1 1 0.0 21.220942 -14.419980 41.568009
4889 1 2 0.0 20.555355 -8.785434 39.228499
4890 1 2 0.0 21.997009 -14.417283 39.638363
4891 1 2 0.0 19.103619 -10.789449 41.182224
4892 1 2 0.0 19.498671 -14.618112 42.077296
4893 1 2 0.0 21.622457 -15.613946 42.518748
4894 1 2 0.0 20.584985 -11.126408 38.161570
4895 1 2 0.0 21.684918 -12.938019 42.095587
4896 1 2 0.0 21.846256 -10.648408 40.254307
4897 1 1 0.0 35.605594 -6.392082 43.094897
4898 1 1 0.0 37.773378 -7.952872 45.234679
4899 1 1 0.0 33.338218 -13.934749 46.475392
4900 1 1 0.0 36.615500 -11.866283 45.188942
4901 1 2 0.0 35.519625 -4.290729 42.594664
4902 1 2 0.0 37.245842 -11.234531 43.302596
4903 1 2 0.0 34.326262 -7.537633 44.455652
4904 1 2 0.0 34.880446 -12.521628 45.506880
4905 1 2 0.0 37.123891 -13.505364 46.267571
4906 1 2 0.0 35.544415 -6.982286 41.503661
4907 1 2 0.0 37.099568 -10.128281 45.724684
4908 1 2 0.0 37.022963 -6.774238 43.800046
4909 1 1 0.0 30.521365 -6.589064 42.990894
4910 1 1 0.0 32.679171 -7.942395 45.068174
4911 1 1 0.0 28.314359 -13.324668 46.358395
4912 1 1 0.0 31.552322 -11.618226 44.989555
4913 1 2 0.0 30.436253 -4.660207 42.508882
4914 1 2 0.0 32.187726 -11.209517 43.074829
4915 1 2 0.0 29.236381 -7.509391 44.381865
4916 1 2 0.0 29.830046 -12.136514 45.357527
4917 1 2 0.0 32.071049 -13.111494 46.026818
4918 1 2 0.0 30.480228 -7.274621 41.388143
4919 1 2 0.0 32.018187 -9.938451 45.546889
4920 1 2 0.0 31.934489 -6.931002 43.656571
4921 1 1 0.0 25.434659 -6.634955 43.025192
4922 1 1 0.0 27.590479 -7.786004 45.035308
4923 1 1 0.0 23.318577 -12.523793 46.417898
4924 1 1 0.0 26.506396 -11.183062 44.962140
4925 1 2 0.0 25.345616 -4.895690 42.545916
4926 1 2 0.0 27.140731 -10.979386 43.035067
4927 1 2 0.0 24.149629 -7.334843 44.442013
4928 1 2 0.0 24.800082 -11.563494 45.381163
4929 1 2 0.0 27.043351 -12.524877 45.963967
4930 1 2 0.0 25.410267 -7.390882 41.433858
4931 1 2 0.0 26.949087 -9.586388 45.517998
4932 1 2 0.0 26.846015 -6.938470 43.649736
4933 1 1 0.0 20.345436 -6.527278 43.200058
4934 1 1 0.0 22.507212 -7.486070 45.133910
4935 1 1 0.0 18.351498 -11.527864 46.657841
4936 1 1 0.0 21.477541 -10.562757 45.104888
4937 1 2 0.0 20.247568 -4.994506 42.708215
4938 1 2 0.0 22.104702 -10.547001 43.180684
4939 1 2 0.0 19.066101 -7.009620 44.640094
4940 1 2 0.0 19.790738 -10.800876 45.579347
4941 1 2 0.0 22.040209 -11.750025 46.074853
4942 1 2 0.0 20.334425 -7.327769 41.643829
4943 1 2 0.0 21.892110 -9.074169 45.636106
4944 1 2 0.0 21.757541 -6.797133 43.779092
4945 1 1 0.0 35.585667 -2.517854 46.640512
4946 1 1 0.0 37.974005 -4.147821 48.721608
4947 1 1 0.0 33.959214 -10.101202 50.029315
4948 1 1 0.0 37.042603 -8.066485 48.687813
4949 1 2 0.0 35.344772 -0.414939 46.145348
4950 1 2 0.0 37.540553 -7.429699 46.794370
4951 1 2 0.0 34.444596 -3.645752 48.019101
4952 1 2 0.0 35.361561 -8.689506 49.041183
4953 1 2 0.0 37.702091 -9.756131 49.738587
4954 1 2 0.0 35.469512 -3.104919 45.052666
4955 1 2 0.0 37.451797 -6.326179 49.218870
4956 1 2 0.0 37.075478 -2.935935 47.312958
4957 1 1 0.0 30.465583 -2.652297 46.594276
4958 1 1 0.0 32.851412 -4.029896 48.652390
4959 1 1 0.0 28.895550 -9.429093 49.963178
4960 1 1 0.0 31.942681 -7.716111 48.578587
4961 1 2 0.0 30.228850 -0.727517 46.113178
4962 1 2 0.0 32.436634 -7.298866 46.661041
4963 1 2 0.0 29.322328 -3.570658 47.987552
4964 1 2 0.0 30.272337 -8.227115 48.958299
4965 1 2 0.0 32.617230 -9.240958 49.604131
4966 1 2 0.0 30.360431 -3.338590 44.992156
4967 1 2 0.0 32.340355 -6.032171 49.134073
4968 1 2 0.0 31.953138 -3.003876 47.250776
4969 1 1 0.0 25.344399 -2.719571 46.609524
4970 1 1 0.0 27.731111 -3.851314 48.638728
4971 1 1 0.0 23.847757 -8.649131 49.996814
4972 1 1 0.0 26.852209 -7.263237 48.563568
4973 1 2 0.0 25.110203 -0.989845 46.127066
4974 1 2 0.0 27.339225 -7.047961 46.637765
4975 1 2 0.0 24.201398 -3.433007 48.013270
4976 1 2 0.0 25.194454 -7.660445 48.971416
4977 1 2 0.0 27.546410 -8.618138 49.569030
4978 1 2 0.0 25.248326 -3.480031 45.016102
4979 1 2 0.0 27.234770 -5.660787 49.120294
4980 1 2 0.0 26.830798 -3.007113 47.247814
4981 1 1 0.0 20.222095 -2.718575 46.687262
4982 1 1 0.0 22.613065 -3.613059 48.679718
4983 1 1 0.0 18.816190 -7.758907 50.132451
4984 1 1 0.0 21.771089 -6.708941 48.641768
4985 1 2 0.0 19.988778 -1.200921 46.187930
4986 1 2 0.0 22.248235 -6.678662 46.723006
4987 1 2 0.0 19.081847 -3.230930 48.097964
4988 1 2 0.0 20.128014 -6.988558 49.081399
4989 1 2 0.0 22.489305 -7.890193 49.630957
4990 1 2 0.0 20.133140 -3.527513 45.126089
4991 1 2 0.0 22.134967 -5.213019 49.176624
4992 1 2 0.0 21.708457 -2.945858 47.303876
4993 1 1 0.0 35.532200 1.355824 50.186126
4994 1 1 0.0 38.127764 -0.340999 52.208537
4995 1 1 0.0 34.549125 -6.263080 53.583237
4996 1 1 0.0 37.425037 -4.262569 52.186685
4997 1 2 0.0 35.137926 3.459117 49.696031
4998 1 2 0.0 37.788839 -3.622351 50.286144
4999 1 2 0.0 34.534783 0.246730 51.582551
5000 1 2 0.0 35.806095 -4.853406 52.575486
5001 1 2 0.0 38.230397 -6.000390 53.209602
5002 1 2 0.0 35.361888 0.771375 48.601671
5003 1 2 0.0 37.758569 -2.520636 52.713056
5004 1 2 0.0 37.086432 0.902368 50.825870
5005 1 1 0.0 30.403072 1.284360 50.197658
5006 1 1 0.0 33.003551 -0.116638 52.236607
5007 1 1 0.0 29.472404 -5.532880 53.567960
5008 1 1 0.0 32.315245 -3.812356 52.167618
5009 1 2 0.0 30.016169 3.204887 49.717474
5010 1 2 0.0 32.666178 -3.387164 50.247252
5011 1 2 0.0 29.406918 0.368105 51.593239
5012 1 2 0.0 30.704896 -4.316658 52.559072
5013 1 2 0.0 33.140305 -5.367407 53.181444
5014 1 2 0.0 30.234833 0.597250 48.596169
5015 1 2 0.0 32.643844 -2.124476 52.721257
5016 1 2 0.0 31.957028 0.923250 50.844982
5017 1 1 0.0 25.274219 1.196142 50.193855
5018 1 1 0.0 27.878407 0.083124 52.242147
5019 1 1 0.0 24.399349 -4.777767 53.575730
5020 1 1 0.0 27.207103 -3.344250 52.164997
5021 1 2 0.0 24.896228 2.917162 49.708217
5022 1 2 0.0 27.545417 -3.116954 50.240463
5023 1 2 0.0 24.278600 0.468286 51.584526
5024 1 2 0.0 25.605943 -3.759258 52.561669
5025 1 2 0.0 28.053155 -4.711879 53.174093
5026 1 2 0.0 25.107503 0.431512 48.598346
5027 1 2 0.0 27.528552 -1.735800 52.722589
5028 1 2 0.0 26.827623 0.924245 50.845892
5029 1 1 0.0 20.145646 1.090897 50.174466
5030 1 1 0.0 22.752349 0.258688 52.225525
5031 1 1 0.0 19.330042 -3.997185 53.607061
5032 1 1 0.0 22.100593 -2.858440 52.178647
5033 1 2 0.0 19.778140 2.595274 49.667646
5034 1 2 0.0 22.426527 -2.812208 50.265327
5035 1 2 0.0 19.149815 0.546642 51.555834
5036 1 2 0.0 20.509256 -3.181021 52.583451
5037 1 2 0.0 22.968877 -4.034336 53.187062
5038 1 2 0.0 19.979893 0.274318 48.608348
5039 1 2 0.0 22.412700 -1.354510 52.717142
5040 1 2 0.0 21.698219 0.905418 50.828661
5041 1 1 0.0 35.445351 5.228956 53.731740
5042 1 1 0.0 38.234811 3.467589 55.695466
5043 1 1 0.0 35.108341 -2.420441 57.137160
5044 1 1 0.0 37.763299 -0.454580 55.685557
5045 1 2 0.0 34.899136 7.331441 53.246714
5046 1 2 0.0 37.991363 0.187479 53.777917
5047 1 2 0.0 34.596931 4.139813 55.146000
5048 1 2 0.0 36.214476 -1.013375 56.109789
5049 1 2 0.0 38.709404 -2.238218 56.680618
5050 1 2 0.0 35.221849 4.646606 52.150676
5051 1 2 0.0 38.020178 1.288326 56.207242
5052 1 2 0.0 37.055998 4.740671 54.338782
5053 1 1 0.0 30.333864 5.220907 53.801040
5054 1 1 0.0 33.135655 3.797377 55.820824
5055 1 1 0.0 30.044977 -1.636037 57.172743
5056 1 1 0.0 32.670214 0.093022 55.756650
5057 1 2 0.0 29.798218 7.137006 53.321770
5058 1 2 0.0 32.876636 0.525572 53.833463
5059 1 2 0.0 29.490157 4.306896 55.198926
5060 1 2 0.0 31.127837 -0.405155 56.159844
5061 1 2 0.0 33.640553 -1.490878 56.758757
5062 1 2 0.0 30.103488 4.532902 52.200182
5063 1 2 0.0 32.928774 1.784623 56.308441
5064 1 2 0.0 31.946220 4.850376 54.439187
5065 1 1 0.0 25.224027 5.112183 53.778186
5066 1 1 0.0 28.032346 4.017311 55.845567
5067 1 1 0.0 24.973074 -0.909660 57.154646
5068 1 1 0.0 27.570977 0.573909 55.766425
5069 1 2 0.0 24.703657 6.825331 53.289367
5070 1 2 0.0 27.759197 0.813642 53.843160
5071 1 2 0.0 24.381137 4.369037 55.155783
5072 1 2 0.0 26.034350 0.140089 56.151923
5073 1 2 0.0 28.563541 -0.806096 56.779156
5074 1 2 0.0 24.987600 4.343741 52.180591
5075 1 2 0.0 27.830379 2.188579 56.324885
5076 1 2 0.0 26.836443 4.855602 54.443970
5077 1 1 0.0 20.115867 4.901135 53.661670
5078 1 1 0.0 22.924953 4.129175 55.771332
5079 1 1 0.0 19.892440 -0.242606 57.081671
5080 1 1 0.0 22.465654 0.988783 55.715527
5081 1 2 0.0 19.615579 6.394075 53.147361
5082 1 2 0.0 22.639084 1.052388 53.807648
5083 1 2 0.0 19.269806 4.323102 55.013703
5084 1 2 0.0 20.933952 0.621790 56.085502
5085 1 2 0.0 23.478559 -0.182407 56.743167
5086 1 2 0.0 19.874233 4.077709 52.090607
5087 1 2 0.0 22.725084 2.501377 56.257660
5088 1 2 0.0 21.726665 4.756693 54.353446
5089 1 1 0.0 35.324752 9.101533 57.277355
5090 1 1 0.0 38.294562 7.277964 59.182396
5091 1 1 0.0 35.636766 1.426729 60.691082
5092 1 1 0.0 38.057189 3.357500 59.184429
5093 1 2 0.0 34.627946 11.202008 56.797397
5094 1 2 0.0 38.148061 3.999793 57.269691
5095 1 2 0.0 34.630708 8.033502 58.709449
5096 1 2 0.0 36.586559 2.830605 59.644092
5097 1 2 0.0 39.138931 1.530409 60.151634
5098 1 2 0.0 35.049192 8.520768 55.699682
5099 1 2 0.0 38.236204 5.100738 59.701428
5100 1 2 0.0 36.983694 8.578973 57.851694
5101 1 1 0.0 30.257884 9.157343 57.404421
5102 1 1 0.0 33.247474 7.712159 59.405040
5103 1 1 0.0 30.613255 2.261438 60.777525
5104 1 1 0.0 33.007507 4.000030 59.345682
5105 1 2 0.0 29.574922 11.068835 56.926066
5106 1 2 0.0 33.067980 4.439344 57.419675
5107 1 2 0.0 29.572028 8.245717 58.804612
5108 1 2 0.0 31.541123 3.507398 59.760617
5109 1 2 0.0 34.117887 2.388640 60.336070
5110 1 2 0.0 29.966358 8.468364 55.804195
5111 1 2 0.0 33.194973 5.695140 59.895625
5112 1 2 0.0 31.920545 8.777502 58.033392
5113 1 1 0.0 25.194042 9.028555 57.362517
5114 1 1 0.0 28.193011 7.951244 59.448987
5115 1 1 0.0 25.569000 2.955179 60.733562
5116 1 1 0.0 27.943872 4.491237 59.367854
5117 1 2 0.0 24.532795 10.734676 56.870518
5118 1 2 0.0 27.980577 4.743825 57.445858
5119 1 2 0.0 24.509311 8.269240 58.727040
5120 1 2 0.0 26.479743 4.037588 59.742176
5121 1 2 0.0 29.077581 3.099211 60.384219
5122 1 2 0.0 24.888748 8.256660 55.762835
5123 1 2 0.0 28.140328 6.112343 59.927180
5124 1 2 0.0 26.857395 8.786959 58.042048
5125 1 1 0.0 20.133275 8.712145 57.148874
5126 1 1 0.0 23.131294 7.998388 59.317140
5127 1 1 0.0 20.503537 3.504806 60.556281
5128 1 1 0.0 22.866432 4.832712 59.252407
5129 1 2 0.0 19.501782 10.195521 56.627077
5130 1 2 0.0 22.885952 4.915124 57.349970
5131 1 2 0.0 19.442438 8.098435 58.471573
5132 1 2 0.0 21.402275 4.419856 59.587554
5133 1 2 0.0 24.018464 3.665579 60.299271
5134 1 2 0.0 19.816458 7.882670 55.572866
5135 1 2 0.0 23.072441 6.354617 59.798178
5136 1 2 0.0 21.794245 8.607968 57.878231
5137 1 1 0.0 35.169475 12.973543 60.822969
5138 1 1 0.0 38.305649 11.090178 62.669325
5139 1 1 0.0 36.133810 5.278517 64.245005
5140 1 1 0.0 38.305794 7.173756 62.683300
5141 1 2 0.0 34.323358 15.070764 60.348080
5142 1 2 0.0 38.258139 7.814635 60.761465
5143 1 2 0.0 34.635308 11.927815 62.272898
5144 1 2 0.0 36.921620 6.678611 63.178395
5145 1 2 0.0 39.518001 5.305618 63.622650
5146 1 2 0.0 34.843185 12.393836 59.248687
5147 1 2 0.0 38.405482 8.916690 63.195615
5148 1 2 0.0 36.868347 12.417276 61.364606
5149 1 1 0.0 30.174946 13.093664 61.007803
5150 1 1 0.0 33.338421 11.627730 62.989257
5151 1 1 0.0 31.177156 6.159557 64.382308
5152 1 1 0.0 33.326760 7.908701 62.934714
5153 1 2 0.0 29.346116 15.000365 60.530362
5154 1 2 0.0 33.239880 8.354171 61.005886
5155 1 2 0.0 29.652492 12.184568 62.410299
5156 1 2 0.0 31.944560 7.421022 63.361389
5157 1 2 0.0 34.571857 6.271206 63.913383
5158 1 2 0.0 29.823316 12.403632 59.408208
5159 1 2 0.0 33.441962 9.607111 63.482809
5160 1 2 0.0 31.879584 12.704628 61.627598
5161 1 1 0.0 25.184819 12.945267 60.946849
5162 1 1 0.0 28.360597 11.884915 63.052407
5163 1 1 0.0 26.187552 6.816689 64.312478
5164 1 1 0.0 28.325974 8.407715 62.969283
5165 1 2 0.0 24.384312 14.645234 60.451669
5166 1 2 0.0 28.209687 8.673590 61.048556
5167 1 2 0.0 24.663848 12.168878 62.298296
5168 1 2 0.0 26.942460 7.933204 63.332429
5169 1 2 0.0 29.595348 7.004031 63.989282
5170 1 2 0.0 24.811420 12.170285 59.345079
5171 1 2 0.0 28.458605 10.035476 63.529476
5172 1 2 0.0 26.890820 12.718316 61.640126
5173 1 1 0.0 20.199164 12.523950 60.636078
5174 1 1 0.0 23.372348 11.866288 62.862947
5175 1 1 0.0 21.164263 7.244915 64.030891
5176 1 1 0.0 23.303662 8.673280 62.789286
5177 1 2 0.0 19.438253 13.999692 60.106793
5178 1 2 0.0 23.167726 8.775967 60.892291
5179 1 2 0.0 19.669203 11.872611 61.929443
5180 1 2 0.0 21.915097 8.213083 63.089606
5181 1 2 0.0 24.589186 7.509545 63.855376
5182 1 2 0.0 19.807645 11.689236 59.055126
5183 1 2 0.0 23.455664 10.205141 63.338696
5184 1 2 0.0 21.902057 12.459243 61.403015
5185 1 1 0.0 34.977960 16.844958 64.368584
5186 1 1 0.0 38.265800 14.904318 66.156254
5187 1 1 0.0 36.598342 9.135089 67.798928
5188 1 1 0.0 38.507409 10.994344 66.182172
5189 1 2 0.0 33.983743 18.937621 63.898764
5190 1 2 0.0 38.320008 11.632091 64.253239
5191 1 2 0.0 34.609389 15.822781 65.836347
5192 1 2 0.0 37.218288 10.530792 66.712698
5193 1 2 0.0 39.844766 9.087650 67.093665
5194 1 2 0.0 34.602507 16.265767 62.797692
5195 1 2 0.0 38.526003 12.736331 66.689801
5196 1 2 0.0 36.707991 16.255579 64.877518
5197 1 1 0.0 30.084738 17.029867 64.611185
5198 1 1 0.0 33.407522 15.544126 66.573474
5199 1 1 0.0 31.736522 10.058343 67.987091
5200 1 1 0.0 33.627296 11.819097 66.523746
5201 1 2 0.0 29.111532 18.931581 64.134658
5202 1 2 0.0 33.391673 12.270087 64.592098
5203 1 2 0.0 29.731485 16.123450 66.015986
5204 1 2 0.0 32.337783 11.335757 66.962162
5205 1 2 0.0 35.001605 10.156931 67.490696
5206 1 2 0.0 29.674126 16.338699 63.012221
5207 1 2 0.0 33.668916 13.520599 67.069993
5208 1 2 0.0 31.822640 16.631754 65.221803
5209 1 1 0.0 25.197292 16.862335 64.531180
5210 1 1 0.0 28.535426 15.818312 66.655826
5211 1 1 0.0 26.829547 10.674750 67.891395
5212 1 1 0.0 28.717628 12.323313 66.570711
5213 1 2 0.0 24.259298 18.557065 64.032819
5214 1 2 0.0 28.446791 12.602921 64.651253
5215 1 2 0.0 24.845962 16.067927 65.869553
5216 1 2 0.0 27.423144 11.826866 66.922683
5217 1 2 0.0 30.116978 10.908348 67.594345
5218 1 2 0.0 24.756467 16.084643 62.927323
5219 1 2 0.0 28.785568 13.957952 67.131771
5220 1 2 0.0 26.937289 16.649673 65.238203
5221 1 1 0.0 20.315718 16.336586 64.123282
5222 1 1 0.0 23.649735 15.732816 66.408754
5223 1 1 0.0 21.876409 10.977457 67.505501
5224 1 1 0.0 23.778717 12.510361 66.326166
5225 1 2 0.0 19.427442 17.806722 63.586508
5226 1 2 0.0 23.485596 12.634854 64.434612
5227 1 2 0.0 19.952592 15.645575 65.387313
5228 1 2 0.0 22.474064 12.001291 66.591657
5229 1 2 0.0 25.191857 11.349344 67.411481
5230 1 2 0.0 19.849730 15.497471 62.537385
5231 1 2 0.0 23.876296 14.052833 66.879214
5232 1 2 0.0 22.051938 16.310518 64.927800
5233 1 1 0.0 34.747869 20.715742 67.914198
5234 1 1 0.0 38.171634 18.720510 69.643184
5235 1 1 0.0 37.028592 12.996707 71.352850
5236 1 1 0.0 38.659393 14.819508 69.681044
5237 1 2 0.0 33.606692 22.802449 67.449447
5238 1 2 0.0 38.331146 15.452298 67.745013
5239 1 2 0.0 34.550948 19.718443 69.399797
5240 1 2 0.0 37.474431 14.387381 70.247001
5241 1 2 0.0 40.116339 12.876883 70.564681
5242 1 2 0.0 34.325132 20.136496 66.346697
5243 1 2 0.0 38.594732 16.559894 70.183987
5244 1 2 0.0 36.499687 20.093882 68.390430
5245 1 1 0.0 29.986790 20.965943 68.214567
5246 1 1 0.0 33.453327 19.461403 70.157690
5247 1 1 0.0 32.291106 13.957833 71.591873
5248 1 1 0.0 33.908060 15.731317 70.112778
5249 1 2 0.0 28.870771 22.862463 67.738954
5250 1 2 0.0 33.522305 16.187151 68.178309
5251 1 2 0.0 29.808911 20.062366 69.621672
5252 1 2 0.0 32.720225 15.251664 70.562934
5253 1 2 0.0 35.405796 14.045991 71.068009
5254 1 2 0.0 29.518430 20.273552 66.616234
5255 1 2 0.0 33.874587 17.435698 70.657177
5256 1 2 0.0 31.748669 20.558880 68.816008
5257 1 1 0.0 25.232863 20.779781 68.115511
5258 1 1 0.0 28.717979 19.751417 70.259246
5259 1 1 0.0 27.496260 14.529172 71.470311
5260 1 1 0.0 29.119373 16.237980 70.172140
5261 1 2 0.0 24.159369 22.470256 67.613970
5262 1 2 0.0 28.692309 16.531796 68.253951
5263 1 2 0.0 25.057463 19.966347 69.440810
5264 1 2 0.0 27.922791 15.718465 70.512936
5265 1 2 0.0 30.642685 14.812133 71.199408
5266 1 2 0.0 24.725198 19.999779 66.509568
5267 1 2 0.0 29.121759 17.879730 70.734067
5268 1 2 0.0 26.997652 20.581030 68.836281
5269 1 1 0.0 20.486205 20.150105 67.610486
5270 1 1 0.0 23.965867 19.597879 69.954562
5271 1 1 0.0 22.642774 14.702021 70.980112
5272 1 1 0.0 24.293722 16.343759 69.863045
5273 1 2 0.0 19.472975 21.616806 67.066224
5274 1 2 0.0 23.841451 16.491681 67.976934
5275 1 2 0.0 20.296322 19.417248 68.845182
5276 1 2 0.0 23.081738 15.784202 70.093709
5277 1 2 0.0 25.828238 15.184745 70.967586
5278 1 2 0.0 19.945689 19.307473 66.019644
5279 1 2 0.0 24.336664 17.897518 70.419732
5280 1 2 0.0 22.246634 20.161793 68.452585
5281 1 1 0.0 34.475842 24.585838 71.459812
5282 1 1 0.0 38.018302 22.538939 73.130113
5283 1 1 0.0 37.421975 16.863749 74.906773
5284 1 1 0.0 38.757907 18.649603 73.179916
5285 1 2 0.0 33.188761 26.665060 71.000130
5286 1 2 0.0 38.287855 19.275455 71.236787
5287 1 2 0.0 34.457110 23.614862 72.963246
5288 1 2 0.0 37.686948 18.248714 73.781304
5289 1 2 0.0 40.328517 16.673863 74.035697
5290 1 2 0.0 34.008129 24.005924 69.895702
5291 1 2 0.0 38.607300 20.387708 73.678173
5292 1 2 0.0 36.239221 23.932184 71.903342
5293 1 1 0.0 29.880428 24.901881 71.817948
5294 1 1 0.0 33.473756 23.379640 73.741907
5295 1 1 0.0 32.840547 17.858080 75.196656
5296 1 1 0.0 34.167526 19.645501 73.701810
5297 1 2 0.0 28.623267 26.792979 71.343250
5298 1 2 0.0 33.630237 20.105446 71.764521
5299 1 2 0.0 29.884630 24.001319 73.227359
5300 1 2 0.0 33.091063 19.168834 74.163707
5301 1 2 0.0 35.782483 17.938638 74.645322
5302 1 2 0.0 29.355707 24.208175 70.220247
5303 1 2 0.0 34.057181 21.352544 74.244361
5304 1 2 0.0 31.656176 24.486006 72.410214
5305 1 1 0.0 25.293541 24.697639 71.699842
5306 1 1 0.0 28.908946 23.684205 73.862666
5307 1 1 0.0 28.189555 18.379683 75.049227
5308 1 1 0.0 29.531987 20.151646 73.773568
5309 1 2 0.0 24.086832 26.384932 71.195120
5310 1 2 0.0 28.946851 20.460182 71.856649
5311 1 2 0.0 25.300947 23.864083 73.012066
5312 1 2 0.0 28.442853 19.607844 74.103189
5313 1 2 0.0 31.172779 18.715345 74.804471
5314 1 2 0.0 24.719504 23.915752 70.091812
5315 1 2 0.0 29.467954 21.800750 74.336362
5316 1 2 0.0 27.073131 24.512388 72.434359
5317 1 1 0.0 20.715321 23.964586 71.097690
5318 1 1 0.0 24.324202 23.461347 73.500369
5319 1 1 0.0 23.467445 18.418004 74.454722
5320 1 1 0.0 24.851768 20.173188 73.399925
5321 1 2 0.0 19.580036 25.430226 70.545939
5322 1 2 0.0 24.238058 20.346298 71.519255
5323 1 2 0.0 20.705726 23.187517 72.303052
5324 1 2 0.0 23.741848 19.561410 73.595761
5325 1 2 0.0 26.500896 19.015413 74.523690
5326 1 2 0.0 20.099826 23.119382 69.501903
5327 1 2 0.0 24.840121 21.738941 73.960251
5328 1 2 0.0 22.490086 24.013069 71.977370
5329 1 1 0.0 34.157101 28.455168 75.005427
5330 1 1 0.0 37.798903 26.359865 76.617042
5331 1 1 0.0 37.774811 20.736758 78.460695
5332 1 1 0.0 38.797485 22.485131 76.678787
5333 1 2 0.0 32.725038 30.525188 74.550813
5334 1 2 0.0 38.184864 23.101849 74.728561
5335 1 2 0.0 34.323785 27.512126 76.526695
5336 1 2 0.0 37.851421 22.115272 77.315608
5337 1 2 0.0 40.475315 20.479372 77.506712
5338 1 2 0.0 33.647322 27.873917 73.444707
5339 1 2 0.0 38.557490 24.220243 77.172359
5340 1 2 0.0 35.920589 27.770487 75.416254
5341 1 1 0.0 29.764693 28.837665 75.421330
5342 1 1 0.0 33.465848 27.298947 77.326124
5343 1 1 0.0 33.384333 21.759159 78.801438
5344 1 1 0.0 34.403513 23.561849 77.290842
5345 1 2 0.0 28.368208 30.723086 74.947546
5346 1 2 0.0 33.713268 24.025091 75.350732
5347 1 2 0.0 29.958445 27.940312 76.833046
5348 1 2 0.0 33.449119 23.087393 77.764479
5349 1 2 0.0 36.128893 21.835235 78.222635
5350 1 2 0.0 29.185217 28.142543 73.824260
5351 1 2 0.0 34.214142 25.271330 77.831545
5352 1 2 0.0 31.543027 28.413132 76.004419
5353 1 1 0.0 25.382189 28.615955 75.284174
5354 1 1 0.0 29.109308 27.616637 77.466086
5355 1 1 0.0 28.912085 22.225892 78.628143
5356 1 1 0.0 29.956584 24.064206 77.374997
5357 1 2 0.0 24.044978 30.301272 74.776271
5358 1 2 0.0 29.211294 24.388031 75.459346
5359 1 2 0.0 25.580111 27.761055 76.583323
5360 1 2 0.0 28.985397 23.494778 77.693442
5361 1 2 0.0 31.707701 22.617928 78.409534
5362 1 2 0.0 24.742081 27.832653 73.674056
5363 1 2 0.0 29.825263 25.720928 77.938658
5364 1 2 0.0 27.165464 28.443745 76.032437
5365 1 1 0.0 21.009750 27.780137 74.584894
5366 1 1 0.0 24.729664 27.323033 77.046177
5367 1 1 0.0 24.356241 22.124551 77.929332
5368 1 1 0.0 25.457255 23.998242 76.936804
5369 1 2 0.0 19.756017 29.247383 74.025655
5370 1 2 0.0 24.679365 24.198492 75.061576
5371 1 2 0.0 21.188395 26.956218 75.760922
5372 1 2 0.0 24.459704 23.332338 77.097812
5373 1 2 0.0 27.213488 22.840872 78.079795
5374 1 2 0.0 20.318269 26.933400 72.984162
5375 1 2 0.0 25.391436 25.576741 77.500769
5376 1 2 0.0 22.787902 27.864344 75.502154
5377 1 1 0.0 29.793580 -28.977085 35.808992
5378 1 1 0.0 30.640543 -30.452954 38.183513
5379 1 1 0.0 23.520765 -35.095875 39.156254
5380 1 1 0.0 27.808388 -33.788672 38.090006
5381 1 2 0.0 30.781004 -27.062034 35.288483
5382 1 2 0.0 29.046697 -33.452594 36.232051
5383 1 2 0.0 27.802178 -29.771405 37.098407
5384 1 2 0.0 25.819228 -34.155751 38.266220
5385 1 2 0.0 27.354887 -35.133332 39.280060
5386 1 2 0.0 29.822675 -29.606542 34.204192
5387 1 2 0.0 28.940398 -32.275622 38.644492
5388 1 2 0.0 30.761495 -29.428278 36.644949
5389 1 1 0.0 25.153483 -28.408748 35.473919
5390 1 1 0.0 25.962855 -29.863723 37.627859
5391 1 1 0.0 19.123175 -33.801183 38.835816
5392 1 1 0.0 23.251826 -32.978332 37.529979
5393 1 2 0.0 26.095974 -26.626384 34.988250
5394 1 2 0.0 24.485939 -32.872937 35.626535
5395 1 2 0.0 23.201863 -28.928052 36.855670
5396 1 2 0.0 21.333317 -33.123025 37.850988
5397 1 2 0.0 22.802244 -34.263707 38.614117
5398 1 2 0.0 25.225498 -29.124451 33.868642
5399 1 2 0.0 24.322865 -31.513849 38.094704
5400 1 2 0.0 26.094088 -28.925219 36.176301
5401 1 1 0.0 20.610237 -27.363297 35.584419
5402 1 1 0.0 21.407817 -28.802895 37.518181
5403 1 1 0.0 14.913018 -32.012684 38.998785
5404 1 1 0.0 18.855562 -31.665158 37.452977
5405 1 2 0.0 21.486928 -25.727258 35.117865
5406 1 2 0.0 20.071281 -31.767080 35.520828
5407 1 2 0.0 18.715069 -27.616858 37.053538
5408 1 2 0.0 17.015197 -31.592315 37.916701
5409 1 2 0.0 18.432138 -32.888342 38.440266
5410 1 2 0.0 20.721888 -28.139266 34.001432
5411 1 2 0.0 19.850263 -30.270302 38.005368
5412 1 2 0.0 21.531515 -27.945897 36.153977
5413 1 1 0.0 16.165430 -25.832914 36.147793
5414 1 1 0.0 16.973438 -27.278132 37.847232
5415 1 1 0.0 10.894479 -29.719353 39.655952
5416 1 1 0.0 14.617910 -29.854438 37.853922
5417 1 2 0.0 16.955381 -24.355409 35.685904
5418 1 2 0.0 15.800681 -30.142373 35.907951
5419 1 2 0.0 14.345187 -25.823855 37.705167
5420 1 2 0.0 12.866380 -29.559133 38.467692
5421 1 2 0.0 14.240296 -31.019081 38.746985
5422 1 2 0.0 16.313601 -26.641554 34.611344
5423 1 2 0.0 15.520734 -28.551152 38.370585
5424 1 2 0.0 17.073430 -26.491882 36.576504
5425 1 1 0.0 30.751785 -25.218549 39.354606
5426 1 1 0.0 31.853629 -26.831793 41.670442
5427 1 1 0.0 25.083756 -31.535710 42.710176
5428 1 1 0.0 29.234209 -30.230688 41.588878
5429 1 2 0.0 31.581477 -23.261902 38.839167
5430 1 2 0.0 30.355457 -29.856437 39.723825
5431 1 2 0.0 28.874629 -26.025131 40.661856
5432 1 2 0.0 27.269681 -30.569478 41.800523
5433 1 2 0.0 28.938542 -31.672929 42.751076
5434 1 2 0.0 30.726788 -25.830458 37.753197
5435 1 2 0.0 30.295016 -28.696275 42.138678
5436 1 2 0.0 31.816432 -25.730298 40.157861
5437 1 1 0.0 25.974350 -24.557928 39.077301
5438 1 1 0.0 27.057566 -26.101941 41.212075
5439 1 1 0.0 20.546681 -30.128634 42.440599
5440 1 1 0.0 24.548324 -29.275726 41.119011
5441 1 2 0.0 26.761609 -22.744786 38.592546
5442 1 2 0.0 25.654376 -29.130732 39.212746
5443 1 2 0.0 24.138309 -25.101286 40.461357
5444 1 2 0.0 22.647383 -29.414160 41.451761
5445 1 2 0.0 24.266339 -30.636674 42.191430
5446 1 2 0.0 25.980120 -25.259430 37.472655
5447 1 2 0.0 25.556660 -27.792045 41.681888
5448 1 2 0.0 27.019914 -25.107871 39.770507
5449 1 1 0.0 21.277070 -23.502448 39.168750
5450 1 1 0.0 22.362679 -24.983061 41.121600
5451 1 1 0.0 16.167289 -28.306129 42.577701
5452 1 1 0.0 19.996931 -27.898882 41.054406
5453 1 2 0.0 22.004155 -21.846957 38.699016
5454 1 2 0.0 21.076609 -27.960894 39.123526
5455 1 2 0.0 19.495757 -23.791009 40.624795
5456 1 2 0.0 18.166016 -27.840574 41.506955
5457 1 2 0.0 19.747538 -29.175406 42.045329
5458 1 2 0.0 21.311680 -24.267782 37.583677
5459 1 2 0.0 20.938720 -26.487534 41.607663
5460 1 2 0.0 22.310044 -24.091794 39.752055
5461 1 1 0.0 16.661257 -22.045640 39.634997
5462 1 1 0.0 17.767324 -23.481475 41.393040
5463 1 1 0.0 11.949101 -26.058918 43.130562
5464 1 1 0.0 15.578615 -26.104593 41.390801
5465 1 2 0.0 17.310361 -20.560819 39.165620
5466 1 2 0.0 16.620433 -26.353125 39.450272
5467 1 2 0.0 14.949774 -22.082759 41.163036
5468 1 2 0.0 13.826850 -25.844951 41.969744
5469 1 2 0.0 15.378546 -27.299075 42.303090
5470 1 2 0.0 16.722936 -22.847628 38.093603
5471 1 2 0.0 16.439652 -24.787870 41.911103
5472 1 2 0.0 17.686538 -22.683366 40.101289
5473 1 1 0.0 31.670342 -21.451964 42.900220
5474 1 1 0.0 33.012322 -23.196485 45.157372
5475 1 1 0.0 26.609968 -27.961584 46.264099
5476 1 1 0.0 30.606879 -26.655761 45.087750
5477 1 2 0.0 32.344365 -19.455609 42.389850
5478 1 2 0.0 31.607639 -26.244573 43.215599
5479 1 2 0.0 29.914209 -22.270880 44.225305
5480 1 2 0.0 28.676653 -26.968554 45.334826
5481 1 2 0.0 30.463096 -28.191194 46.222091
5482 1 2 0.0 31.591210 -22.046992 41.302202
5483 1 2 0.0 31.596551 -25.100959 45.632864
5484 1 2 0.0 32.822542 -22.021572 43.670773
5485 1 1 0.0 26.787263 -20.705492 42.680682
5486 1 1 0.0 28.128948 -22.334091 44.796292
5487 1 1 0.0 21.965056 -26.454137 46.045382
5488 1 1 0.0 25.823650 -25.566371 44.708043
5489 1 2 0.0 27.421042 -18.862172 42.196842
5490 1 2 0.0 26.799216 -25.381975 42.798958
5491 1 2 0.0 25.073170 -21.274136 44.067044
5492 1 2 0.0 23.949882 -25.701397 45.052533
5493 1 2 0.0 25.703067 -26.999763 45.768743
5494 1 2 0.0 26.727704 -21.393101 41.076668
5495 1 2 0.0 26.768643 -24.063679 45.269072
5496 1 2 0.0 27.928400 -21.286706 43.364712
5497 1 1 0.0 21.967641 -19.646418 42.753082
5498 1 1 0.0 23.325275 -21.165239 44.725020
5499 1 1 0.0 17.448078 -24.609639 46.156617
5500 1 1 0.0 21.149106 -24.136051 44.655834
5501 1 2 0.0 22.546566 -17.970785 42.280166
5502 1 2 0.0 22.091320 -24.157312 42.726223
5503 1 2 0.0 20.306145 -19.972366 44.196051
5504 1 2 0.0 19.337183 -24.095688 45.097208
5505 1 2 0.0 21.067303 -25.464044 45.650392
5506 1 2 0.0 21.927088 -20.401063 41.165921
5507 1 2 0.0 22.036634 -22.707611 45.209959
5508 1 2 0.0 23.102723 -20.240805 43.350132
5509 1 1 0.0 17.212515 -18.269618 43.122202
5510 1 1 0.0 18.600009 -19.694910 44.938847
5511 1 1 0.0 13.061891 -22.420563 46.605172
5512 1 1 0.0 16.582103 -22.368387 44.927681
5513 1 2 0.0 17.721910 -16.775503 42.645335
5514 1 2 0.0 17.482546 -22.575640 42.992593
5515 1 2 0.0 15.615346 -18.356461 44.620906
5516 1 2 0.0 14.839583 -22.148378 45.471796
5517 1 2 0.0 16.552894 -23.592099 45.859195
5518 1 2 0.0 17.190542 -19.064539 41.575863
5519 1 2 0.0 17.399297 -21.036839 45.451621
5520 1 2 0.0 18.345283 -18.884895 43.626074
5521 1 1 0.0 32.552107 -17.677911 46.445835
5522 1 1 0.0 34.120447 -19.548026 48.644301
5523 1 1 0.0 28.102423 -24.374645 49.818021
5524 1 1 0.0 31.930668 -23.065251 48.586622
5525 1 2 0.0 33.072228 -15.643574 45.940533
5526 1 2 0.0 32.808026 -22.618327 46.707373
5527 1 2 0.0 30.923253 -18.509220 47.788755
5528 1 2 0.0 30.043667 -23.354167 48.869129
5529 1 2 0.0 31.933364 -24.689866 49.693107
5530 1 2 0.0 32.419037 -18.256721 44.851207
5531 1 2 0.0 32.848945 -21.490860 49.127050
5532 1 2 0.0 33.783309 -18.302864 47.183685
5533 1 1 0.0 27.592794 -16.851559 46.284064
5534 1 1 0.0 29.178641 -18.560600 48.380509
5535 1 1 0.0 23.378723 -22.777854 49.650164
5536 1 1 0.0 27.079504 -21.850808 48.297074
5537 1 2 0.0 28.074698 -14.978610 45.801138
5538 1 2 0.0 27.922452 -21.627220 46.385169
5539 1 2 0.0 26.006559 -17.446629 47.672730
5540 1 2 0.0 25.241751 -21.985053 48.653306
5541 1 2 0.0 27.114657 -23.353779 49.346056
5542 1 2 0.0 27.468800 -17.525564 44.680681
5543 1 2 0.0 27.960432 -20.329238 48.856256
5544 1 2 0.0 28.820785 -17.461997 46.958917
5545 1 1 0.0 22.680241 -15.794859 46.337413
5546 1 1 0.0 24.295063 -17.349287 48.328440
5547 1 1 0.0 18.753208 -20.922388 49.735533
5548 1 1 0.0 22.311218 -20.376388 48.257263
5549 1 2 0.0 23.112445 -14.098460 45.861317
5550 1 2 0.0 23.114619 -20.356115 46.328921
5551 1 2 0.0 21.144126 -16.160419 47.767308
5552 1 2 0.0 20.527048 -20.357103 48.687461
5553 1 2 0.0 22.391078 -21.754130 49.255455
5554 1 2 0.0 22.566114 -16.538736 44.748165
5555 1 2 0.0 23.143303 -18.930322 48.812254
5556 1 2 0.0 23.908541 -16.392709 46.948210
5557 1 1 0.0 17.815212 -14.504038 46.609406
5558 1 1 0.0 19.468766 -15.917725 48.484654
5559 1 1 0.0 14.228070 -18.802471 50.079782
5560 1 1 0.0 17.624939 -18.644724 48.464561
5561 1 2 0.0 18.186174 -12.998829 46.125051
5562 1 2 0.0 18.383441 -18.808922 46.534915
5563 1 2 0.0 16.337575 -14.643911 48.078776
5564 1 2 0.0 15.900341 -18.467986 48.973847
5565 1 2 0.0 17.760399 -19.897090 49.415300
5566 1 2 0.0 17.711871 -15.291442 45.058122
5567 1 2 0.0 18.396645 -17.297151 48.992139
5568 1 2 0.0 19.046410 -15.095753 47.150859
5569 1 1 0.0 33.399047 -13.896789 49.991449
5570 1 1 0.0 35.180625 -15.887098 52.131230
5571 1 1 0.0 29.563230 -20.775694 53.371944
5572 1 1 0.0 33.208550 -19.460106 52.085493
5573 1 2 0.0 33.766816 -11.826084 49.491216
5574 1 2 0.0 33.959963 -18.978629 50.199147
5575 1 2 0.0 31.903365 -14.740538 51.352204
5576 1 2 0.0 31.373181 -19.727144 52.403432
5577 1 2 0.0 33.352701 -21.170155 53.164123
5578 1 2 0.0 33.212421 -14.460043 48.400213
5579 1 2 0.0 34.054920 -17.866798 52.621236
5580 1 2 0.0 34.701126 -14.574702 50.696598
5581 1 1 0.0 28.391338 -12.996206 49.887446
5582 1 1 0.0 30.207770 -14.781762 51.964725
5583 1 1 0.0 24.787976 -19.099895 53.254947
5584 1 1 0.0 28.317071 -18.129415 51.886106
5585 1 2 0.0 28.722863 -11.094149 49.405434
5586 1 2 0.0 29.025480 -17.866854 49.971381
5587 1 2 0.0 26.938553 -13.618784 51.278417
5588 1 2 0.0 26.523645 -18.265347 52.254078
5589 1 2 0.0 28.502662 -19.699282 52.923369
5590 1 2 0.0 28.203788 -13.656892 48.284694
5591 1 2 0.0 29.133147 -16.589059 52.443440
5592 1 2 0.0 29.697918 -13.633930 50.553123
5593 1 1 0.0 23.413691 -11.947533 49.921744
5594 1 1 0.0 25.271668 -13.535109 51.931860
5595 1 1 0.0 20.081157 -17.243798 53.314449
5596 1 1 0.0 23.482664 -16.619700 51.858691
5597 1 2 0.0 23.700620 -10.229790 49.442467
5598 1 2 0.0 24.145952 -16.557149 49.931619
5599 1 2 0.0 22.008250 -12.354815 51.338565
5600 1 2 0.0 21.734461 -16.624431 52.277715
5601 1 2 0.0 23.718614 -18.045573 52.860518
5602 1 2 0.0 23.227368 -12.680544 48.330409
5603 1 2 0.0 24.258242 -15.155521 52.414550
5604 1 2 0.0 24.726805 -12.547352 50.546288
5605 1 1 0.0 18.466599 -10.748342 50.096610
5606 1 1 0.0 20.371722 -12.149435 52.030462
5607 1 1 0.0 15.444301 -15.203378 53.554392
5608 1 1 0.0 18.704727 -14.932842 52.001440
5609 1 2 0.0 18.700520 -9.230366 49.604766
5610 1 2 0.0 19.320613 -15.052276 50.077236
5611 1 2 0.0 17.113485 -10.944387 51.536646
5612 1 2 0.0 17.006173 -14.802782 52.475899
5613 1 2 0.0 18.999013 -16.213309 52.971404
5614 1 2 0.0 18.283764 -11.527750 48.540381
5615 1 2 0.0 19.429607 -13.568177 52.532657
5616 1 2 0.0 19.787680 -11.315448 50.675643
5617 1 1 0.0 34.212430 -10.108854 53.537063
5618 1 1 0.0 36.194535 -12.214136 55.618160
5619 1 1 0.0 30.993806 -17.165268 56.925867
5620 1 1 0.0 34.442511 -15.840960 55.584365
5621 1 2 0.0 34.429231 -8.003319 53.041899
5622 1 2 0.0 35.065710 -15.326106 53.690921
5623 1 2 0.0 32.855571 -10.965086 54.915653
5624 1 2 0.0 32.666840 -16.088041 55.937735
5625 1 2 0.0 34.723357 -17.632874 56.635139
5626 1 2 0.0 33.972789 -10.657225 51.949218
5627 1 2 0.0 35.216253 -14.229305 56.115422
5628 1 2 0.0 35.577535 -10.837426 54.209510
5629 1 1 0.0 29.183149 -9.139487 53.490828
5630 1 1 0.0 31.217055 -10.997762 55.548942
5631 1 1 0.0 26.193011 -15.420335 56.859729
5632 1 1 0.0 29.537143 -14.402445 55.475138
5633 1 2 0.0 29.365722 -7.208817 53.009730
5634 1 2 0.0 30.109243 -14.101140 53.557592
5635 1 2 0.0 27.869202 -9.790611 54.884104
5636 1 2 0.0 27.796000 -14.542427 55.854851
5637 1 2 0.0 29.868124 -16.036649 56.500682
5638 1 2 0.0 28.932923 -9.787131 51.888707
5639 1 2 0.0 30.287517 -12.843362 56.030624
5640 1 2 0.0 30.560346 -9.802627 54.147328
5641 1 1 0.0 24.167233 -8.104285 53.506075
5642 1 1 0.0 26.254854 -9.722641 55.535279
5643 1 1 0.0 21.430902 -13.573482 56.893365
5644 1 1 0.0 24.663038 -12.865858 55.460120
5645 1 2 0.0 24.310353 -6.364655 53.023618
5646 1 2 0.0 25.184945 -12.760309 53.534317
5647 1 2 0.0 22.897588 -8.555330 54.909821
5648 1 2 0.0 22.958652 -12.897411 55.867968
5649 1 2 0.0 25.049746 -14.338314 56.465581
5650 1 2 0.0 23.909931 -8.826314 51.912654
5651 1 2 0.0 25.381134 -11.383112 56.016845
5652 1 2 0.0 25.557068 -8.704636 54.144366
5653 1 1 0.0 19.164901 -7.002169 53.583814
5654 1 1 0.0 21.307683 -8.389729 55.576269
5655 1 1 0.0 16.708342 -11.622433 57.029003
5656 1 1 0.0 19.819869 -11.232230 55.538320
5657 1 2 0.0 19.263289 -5.469841 53.084482
5658 1 2 0.0 20.292368 -11.305232 53.619557
5659 1 2 0.0 17.941169 -7.257426 54.994515
5660 1 2 0.0 18.155099 -11.152097 55.977951
5661 1 2 0.0 20.267359 -12.540260 56.527509
5662 1 2 0.0 18.904128 -7.773072 52.022640
5663 1 2 0.0 20.496819 -9.849505 56.073175
5664 1 2 0.0 20.567653 -7.543662 54.200428
5665 1 1 0.0 34.992939 -6.314247 57.082678
5666 1 1 0.0 37.163054 -8.529369 59.105089
5667 1 1 0.0 32.395009 -13.543693 60.479789
5668 1 1 0.0 35.633734 -12.208189 59.083237
5669 1 2 0.0 35.060028 -4.175371 56.592583
5670 1 2 0.0 36.126659 -11.661145 57.182695
5671 1 2 0.0 33.780418 -7.182996 58.479102
5672 1 2 0.0 33.925629 -12.437188 59.472038
5673 1 2 0.0 36.046685 -14.078510 60.106154
5674 1 2 0.0 34.700970 -6.848420 55.498223
5675 1 2 0.0 36.333933 -10.578681 59.609608
5676 1 2 0.0 36.413354 -7.091216 57.722422
5677 1 1 0.0 29.968365 -5.281430 57.094210
5678 1 1 0.0 32.206872 -7.208699 59.133159
5679 1 1 0.0 27.593950 -11.739220 60.464512
5680 1 1 0.0 30.740189 -10.670047 59.064170
5681 1 2 0.0 30.003364 -3.322630 56.614026
5682 1 2 0.0 31.174321 -10.330237 57.143804
5683 1 2 0.0 28.798532 -5.962119 58.489791
5684 1 2 0.0 29.059079 -10.816382 59.455623
5685 1 2 0.0 31.211670 -12.366106 60.077996
5686 1 2 0.0 29.656351 -5.916309 55.492721
5687 1 2 0.0 31.423949 -9.092269 59.617808
5688 1 2 0.0 31.408361 -5.968152 57.741533
5689 1 1 0.0 24.940458 -4.265033 57.090407
5690 1 1 0.0 27.244495 -5.911853 59.138699
5691 1 1 0.0 22.801827 -9.911204 60.472282
5692 1 1 0.0 25.852101 -9.114786 59.061549
5693 1 2 0.0 24.941272 -2.502992 56.604769
5694 1 2 0.0 26.231367 -8.965532 57.137014
5695 1 2 0.0 23.811648 -4.761843 58.481078
5696 1 2 0.0 24.199161 -9.175890 59.458221
5697 1 2 0.0 26.384373 -10.632317 60.070644
5698 1 2 0.0 24.613266 -4.975948 55.494898
5699 1 2 0.0 26.511804 -7.613042 59.619141
5700 1 2 0.0 26.399094 -4.864510 57.742444
5701 1 1 0.0 19.909162 -3.265325 57.071018
5702 1 1 0.0 22.276022 -4.638443 59.122077
5703 1 1 0.0 18.018840 -8.059120 60.503613
5704 1 1 0.0 20.969414 -7.542586 59.075199
5705 1 2 0.0 19.873645 -1.717118 56.564198
5706 1 2 0.0 21.297666 -7.567501 57.161879
5707 1 2 0.0 18.819615 -3.582782 58.452385
5708 1 2 0.0 19.345936 -7.515534 59.480002
5709 1 2 0.0 21.564614 -8.877645 60.083614
5710 1 2 0.0 19.571744 -4.027182 55.504899
5711 1 2 0.0 21.597524 -6.140910 59.613693
5712 1 2 0.0 21.385565 -3.780226 57.725213
5713 1 1 0.0 35.740729 -2.512997 60.628292
5714 1 1 0.0 38.086332 -4.832836 62.592018
5715 1 1 0.0 33.767205 -9.911108 64.033712
5716 1 1 0.0 36.782693 -8.561945 62.582109
5717 1 2 0.0 35.659256 -0.342247 60.143266
5718 1 2 0.0 37.143449 -7.983924 60.674469
5719 1 2 0.0 34.678012 -3.394292 62.042551
5720 1 2 0.0 35.149956 -8.774724 63.006341
5721 1 2 0.0 37.323249 -10.507267 63.577170
5722 1 2 0.0 35.397265 -3.033686 59.047228
5723 1 2 0.0 37.408240 -6.915009 63.103794
5724 1 2 0.0 37.208753 -3.336108 61.235334
5725 1 1 0.0 30.747016 -1.422039 60.697591
5726 1 1 0.0 33.177285 -3.414590 62.717375
5727 1 1 0.0 28.990843 -8.056569 64.069294
5728 1 1 0.0 31.926399 -6.932283 62.653202
5729 1 2 0.0 30.635797 0.564411 60.218322
5730 1 2 0.0 32.220981 -6.554221 60.730015
5731 1 2 0.0 29.726549 -2.133308 62.095477
5732 1 2 0.0 30.312989 -7.087248 63.056396
5733 1 2 0.0 32.533561 -8.687746 63.655309
5734 1 2 0.0 30.374125 -2.044435 59.096734
5735 1 2 0.0 32.542558 -5.335814 63.204992
5736 1 2 0.0 32.242023 -2.130516 61.335739
5737 1 1 0.0 25.733271 -0.429757 60.674738
5738 1 1 0.0 28.240569 -2.102737 62.742119
5739 1 1 0.0 24.193667 -6.256866 64.051198
5740 1 1 0.0 27.049756 -5.366454 62.662977
5741 1 2 0.0 25.593343 1.355202 60.185919
5742 1 2 0.0 27.285111 -5.172788 60.739712
5743 1 2 0.0 24.750334 -0.974332 62.052335
5744 1 2 0.0 25.455796 -5.459802 63.048474
5745 1 2 0.0 27.722454 -6.927567 63.675707
5746 1 2 0.0 25.337179 -1.129409 59.077142
5747 1 2 0.0 27.650200 -3.845298 63.221436
5748 1 2 0.0 27.252832 -1.026961 61.340522
5749 1 1 0.0 20.699168 0.462232 60.558222
5750 1 1 0.0 23.276631 -0.895550 62.667884
5751 1 1 0.0 19.375213 -4.513221 63.978223
5752 1 1 0.0 22.152978 -3.863786 62.612079
5753 1 2 0.0 20.531515 2.027816 60.043913
5754 1 2 0.0 22.336027 -3.838950 60.704200
5755 1 2 0.0 19.748627 0.079591 61.910255
5756 1 2 0.0 20.578195 -3.892928 62.982054
5757 1 2 0.0 22.890431 -5.225339 63.639718
5758 1 2 0.0 20.286171 -0.289999 58.987159
5759 1 2 0.0 22.731507 -2.442325 63.154212
5760 1 2 0.0 22.241256 -0.025107 61.249998
5761 1 1 0.0 36.455439 1.294967 64.173906
5762 1 1 0.0 38.963804 -1.124390 66.078947
5763 1 1 0.0 35.110303 -6.267478 67.587634
5764 1 1 0.0 37.889197 -4.902167 66.080980
5765 1 2 0.0 36.226465 3.496126 63.693949
5766 1 2 0.0 38.116018 -4.294425 64.166243
5767 1 2 0.0 35.548027 0.401104 65.606001
5768 1 2 0.0 36.339682 -5.100602 66.540644
5769 1 2 0.0 38.552877 -6.919085 67.048186
5770 1 2 0.0 36.061475 0.787017 62.596233
5771 1 2 0.0 38.438771 -3.238168 66.597980
5772 1 2 0.0 37.963262 0.428001 64.748246
5773 1 1 0.0 31.519029 2.438698 64.300973
5774 1 1 0.0 34.128053 0.384629 66.301592
5775 1 1 0.0 30.383676 -4.372378 67.674077
5776 1 1 0.0 33.095698 -3.189127 66.242234
5777 1 2 0.0 31.262949 4.452317 63.822618
5778 1 2 0.0 33.249197 -2.773084 64.316227
5779 1 2 0.0 30.653236 1.695825 65.701164
5780 1 2 0.0 31.557696 -3.355012 66.657168
5781 1 2 0.0 33.833717 -5.001542 67.232622
5782 1 2 0.0 31.086209 1.828497 62.700747
5783 1 2 0.0 33.643179 -1.573947 66.792176
5784 1 2 0.0 33.061163 1.710315 64.929944
5785 1 1 0.0 26.545891 3.401498 64.259069
5786 1 1 0.0 29.243157 1.704684 66.345539
5787 1 1 0.0 25.606487 -2.610490 67.630114
5788 1 1 0.0 28.256043 -1.620873 66.264406
5789 1 2 0.0 26.266870 5.209879 63.767070
5790 1 2 0.0 28.346188 -1.382079 64.342410
5791 1 2 0.0 25.713939 2.807132 65.623591
5792 1 2 0.0 26.728623 -1.749170 66.638728
5793 1 2 0.0 29.064002 -3.224067 67.280770
5794 1 2 0.0 26.081801 2.713279 62.659387
5795 1 2 0.0 28.796395 -0.079899 66.823732
5796 1 2 0.0 28.118420 2.807979 64.938599
5797 1 1 0.0 21.535424 4.180401 64.045426
5798 1 1 0.0 24.309914 2.838845 66.213691
5799 1 1 0.0 20.777605 -0.984789 67.452833
5800 1 1 0.0 23.370717 -0.195881 66.148958
5801 1 2 0.0 21.237577 5.764849 63.523629
5802 1 2 0.0 23.407497 -0.119592 64.246521
5803 1 2 0.0 20.728808 3.729549 65.368125
5804 1 2 0.0 21.852040 -0.284334 66.484106
5805 1 2 0.0 24.244917 -1.583380 67.195823
5806 1 2 0.0 21.047702 3.438424 62.469418
5807 1 2 0.0 23.899075 1.246156 66.694730
5808 1 2 0.0 23.135167 3.721600 64.774782
5809 1 1 0.0 37.136160 5.109831 67.719521
5810 1 1 0.0 39.794145 2.596314 69.565877
5811 1 1 0.0 36.423747 -2.612593 71.141557
5812 1 1 0.0 38.952371 -1.228576 69.579852
5813 1 2 0.0 36.760666 7.339911 67.244632
5814 1 2 0.0 39.043601 -0.592435 67.658017
5815 1 2 0.0 36.389681 4.203382 69.169450
5816 1 2 0.0 37.494117 -1.414588 70.074947
5817 1 2 0.0 39.734644 -3.313627 70.519201
5818 1 2 0.0 36.692879 4.613820 66.145238
5819 1 2 0.0 39.424408 0.452179 70.092166
5820 1 2 0.0 38.675733 4.201362 68.261158
5821 1 1 0.0 32.284224 6.300820 67.904355
5822 1 1 0.0 35.058606 4.189105 69.885809
5823 1 1 0.0 31.772374 -0.686617 71.278860
5824 1 1 0.0 34.247736 0.559531 69.831266
5825 1 2 0.0 31.884655 8.341117 67.426914
5826 1 2 0.0 34.258650 1.013263 67.902438
5827 1 2 0.0 31.578555 5.525290 69.306851
5828 1 2 0.0 32.793014 0.380386 70.257941
5829 1 2 0.0 35.111710 -1.307339 70.809935
5830 1 2 0.0 31.792478 5.702510 66.304760
5831 1 2 0.0 34.725352 2.193469 70.379360
5832 1 2 0.0 33.865376 5.554432 68.524149
5833 1 1 0.0 27.378861 7.228622 67.843400
5834 1 1 0.0 30.252447 5.510362 69.948958
5835 1 1 0.0 27.040688 1.027769 71.209030
5836 1 1 0.0 29.471138 2.121900 69.865834
5837 1 2 0.0 26.962512 9.060930 67.348220
5838 1 2 0.0 29.414726 2.406557 67.945107
5839 1 2 0.0 26.703170 6.582378 69.194848
5840 1 2 0.0 28.017965 1.955897 70.228981
5841 1 2 0.0 30.409085 0.478156 70.885833
5842 1 2 0.0 26.847594 6.552029 66.241631
5843 1 2 0.0 29.950589 3.683094 70.426027
5844 1 2 0.0 28.996190 6.640237 68.536677
5845 1 1 0.0 22.419198 7.888924 67.532630
5846 1 1 0.0 25.376817 6.564497 69.759499
5847 1 1 0.0 22.226897 2.525842 70.927443
5848 1 1 0.0 24.623335 3.460905 69.685838
5849 1 2 0.0 21.993317 9.493737 67.003344
5850 1 2 0.0 24.512651 3.590414 67.788843
5851 1 2 0.0 21.761608 7.366739 68.825995
5852 1 2 0.0 23.168304 3.309967 69.986157
5853 1 2 0.0 25.628635 2.048028 70.751928
5854 1 2 0.0 21.857394 7.157890 65.951677
5855 1 2 0.0 25.101087 4.924276 70.235248
5856 1 2 0.0 24.068368 7.459658 68.299567
5857 1 1 0.0 37.781363 8.931905 71.265135
5858 1 1 0.0 40.575155 6.329847 73.052806
5859 1 1 0.0 37.706468 1.053954 74.695479
5860 1 1 0.0 39.970586 2.459348 73.078724
5861 1 2 0.0 37.260251 11.189370 70.795315
5862 1 2 0.0 39.924664 3.122470 71.149791
5863 1 2 0.0 37.201671 8.012858 72.732899
5864 1 2 0.0 38.611954 2.283756 73.609250
5865 1 2 0.0 40.866794 0.309739 73.990217
5866 1 2 0.0 37.290179 8.446967 69.694244
5867 1 2 0.0 40.363221 4.156611 73.586352
5868 1 2 0.0 39.344248 7.984399 71.774070
5869 1 1 0.0 33.042292 10.164389 71.507737
5870 1 1 0.0 35.968001 7.999084 73.470025
5871 1 1 0.0 33.156786 3.000771 74.883642
5872 1 1 0.0 35.381865 4.313899 73.420298
5873 1 2 0.0 32.500651 12.230853 71.031210
5874 1 2 0.0 35.248700 4.804997 71.488649
5875 1 2 0.0 32.502445 9.355103 72.912537
5876 1 2 0.0 34.018596 4.119066 73.858713
5877 1 2 0.0 36.366727 2.395157 74.387248
5878 1 2 0.0 32.492699 9.577649 69.908773
5879 1 2 0.0 35.788284 5.966673 73.966544
5880 1 2 0.0 34.653980 9.401986 72.118355
5881 1 1 0.0 28.233097 11.051429 71.427732
5882 1 1 0.0 31.268753 9.314216 73.552378
5883 1 1 0.0 28.497042 4.657620 74.787946
5884 1 1 0.0 30.695374 5.861760 73.467263
5885 1 2 0.0 27.681350 12.908179 70.929371
5886 1 2 0.0 30.490977 6.193052 71.547805
5887 1 2 0.0 27.719207 10.351120 72.766105
5888 1 2 0.0 29.324433 5.655195 73.819234
5889 1 2 0.0 31.757833 4.179057 74.490896
5890 1 2 0.0 27.635398 10.386685 69.823875
5891 1 2 0.0 31.113125 7.443577 74.028323
5892 1 2 0.0 29.886698 10.469692 72.134755
5893 1 1 0.0 23.352630 11.587367 71.019834
5894 1 1 0.0 26.478908 10.280997 73.305306
5895 1 1 0.0 23.724779 6.018029 74.402053
5896 1 1 0.0 25.912142 7.106155 73.222717
5897 1 2 0.0 22.801158 13.214085 70.483060
5898 1 2 0.0 25.652636 7.290749 71.331164
5899 1 2 0.0 22.849447 10.990573 72.283864
5900 1 2 0.0 24.528555 6.889448 73.488209
5901 1 2 0.0 27.042659 5.668498 74.308033
5902 1 2 0.0 22.717153 10.868044 69.433936
5903 1 2 0.0 26.339025 8.591588 73.775766
5904 1 2 0.0 25.042655 11.188673 71.824352
5905 1 1 0.0 38.388755 12.761655 74.810750
5906 1 1 0.0 41.303558 10.077062 76.539735
5907 1 1 0.0 38.956792 4.732798 78.249402
5908 1 1 0.0 40.941314 6.162410 76.577596
5909 1 2 0.0 37.722839 15.044895 74.345999
5910 1 2 0.0 40.756772 6.850968 74.641565
5911 1 2 0.0 37.982048 11.830005 76.296348
5912 1 2 0.0 39.691161 5.995117 77.143553
5913 1 2 0.0 41.946590 3.952001 77.461233
5914 1 2 0.0 37.851381 12.286827 73.243249
5915 1 2 0.0 41.252296 7.876006 77.080538
5916 1 2 0.0 39.965935 11.777744 75.286982
5917 1 1 0.0 33.792773 14.029497 75.111118
5918 1 1 0.0 36.854833 11.814930 77.054242
5919 1 1 0.0 34.536679 6.689874 78.488425
5920 1 1 0.0 36.497077 8.074297 77.009330
5921 1 2 0.0 33.110542 16.121589 74.635506
5922 1 2 0.0 36.218332 8.602400 75.074861
5923 1 2 0.0 33.424811 13.185285 76.518224
5924 1 2 0.0 35.233902 7.861207 77.459486
5925 1 2 0.0 37.597501 6.106404 77.964561
5926 1 2 0.0 33.186520 13.453978 73.512786
5927 1 2 0.0 36.830778 9.746026 77.553728
5928 1 2 0.0 35.425955 13.253199 75.712560
5929 1 1 0.0 29.109971 14.869641 75.012063
5930 1 1 0.0 32.292539 13.116124 77.155798
5931 1 1 0.0 29.976755 8.278605 78.366862
5932 1 1 0.0 31.929264 9.598541 77.068691
5933 1 2 0.0 28.424977 16.751364 74.510521
5934 1 2 0.0 31.575346 9.977294 75.150503
5935 1 2 0.0 28.763808 14.112931 76.337361
5936 1 2 0.0 30.648977 9.348401 77.409488
5937 1 2 0.0 33.110447 7.878562 78.095959
5938 1 2 0.0 28.446498 14.217008 73.406119
5939 1 2 0.0 32.284521 11.201394 77.630619
5940 1 2 0.0 30.790775 14.296160 75.732833
5941 1 1 0.0 24.338926 15.275078 74.507038
5942 1 1 0.0 27.618523 13.987738 76.851114
5943 1 1 0.0 25.273898 9.490768 77.876663
5944 1 1 0.0 27.239173 10.739219 76.759597
5945 1 2 0.0 23.664682 16.925303 73.962775
5946 1 2 0.0 26.829274 10.980907 74.873485
5947 1 2 0.0 23.995940 14.600175 75.741734
5948 1 2 0.0 25.935237 10.453284 76.990261
5949 1 2 0.0 28.488659 9.277426 77.864137
5950 1 2 0.0 23.629906 14.568341 72.916196
5951 1 2 0.0 27.615124 12.247421 77.316284
5952 1 2 0.0 26.060710 14.908053 75.349137
5953 1 1 0.0 38.955045 16.599747 78.356364
5954 1 1 0.0 41.974661 13.839180 80.026665
5955 1 1 0.0 40.172277 8.424865 81.803324
5956 1 1 0.0 41.860882 9.881781 80.076467
5957 1 2 0.0 38.145025 18.907043 77.896682
5958 1 2 0.0 41.536359 10.594049 78.133339
5959 1 2 0.0 38.728020 15.655500 79.859797
5960 1 2 0.0 40.728783 9.720489 80.677856
5961 1 2 0.0 42.970047 7.614598 80.932248
5962 1 2 0.0 38.373602 16.133937 76.792254
5963 1 2 0.0 42.087437 11.611626 80.574724
5964 1 2 0.0 40.536680 15.582302 78.799894
5965 1 1 0.0 34.535009 17.896280 78.714500
5966 1 1 0.0 37.717089 15.637169 80.638459
5967 1 1 0.0 35.911713 10.380821 82.093207
5968 1 1 0.0 37.591910 11.841192 80.598362
5969 1 2 0.0 33.713769 20.013418 78.239802
5970 1 2 0.0 37.166057 12.405885 78.661072
5971 1 2 0.0 34.345518 17.015869 80.123911
5972 1 2 0.0 36.438144 11.607077 81.060258
5973 1 2 0.0 38.802185 9.827067 81.541874
5974 1 2 0.0 33.873428 17.331592 77.116799
5975 1 2 0.0 37.851109 13.532046 81.140912
5976 1 2 0.0 36.179839 17.108394 79.306765
5977 1 1 0.0 30.011454 18.682858 78.596394
5978 1 1 0.0 33.324475 16.915912 80.759218
5979 1 1 0.0 31.481588 11.890056 81.945779
5980 1 1 0.0 33.173554 13.332007 80.670120
5981 1 2 0.0 29.195676 20.590110 78.091672
5982 1 2 0.0 32.668424 13.759117 78.753200
5983 1 2 0.0 29.839497 17.867198 79.908618
5984 1 2 0.0 31.992982 13.035051 80.999741
5985 1 2 0.0 34.467222 11.576565 81.701022
5986 1 2 0.0 29.282756 18.042653 76.988364
5987 1 2 0.0 33.465527 14.956321 81.232914
5988 1 2 0.0 31.709615 18.119379 79.330911
5989 1 1 0.0 25.382686 18.951125 77.994242
5990 1 1 0.0 28.799012 17.683849 80.396921
5991 1 1 0.0 26.878115 12.942594 81.351273
5992 1 1 0.0 28.607386 14.359154 80.296476
5993 1 2 0.0 24.589013 20.626553 77.442491
5994 1 2 0.0 28.045238 14.660147 78.415807
5995 1 2 0.0 25.206269 18.194287 79.199604
5996 1 2 0.0 27.391902 14.000279 80.492312
5997 1 2 0.0 29.969071 12.873934 81.420242
5998 1 2 0.0 24.599887 18.257996 76.398455
5999 1 2 0.0 28.932602 15.890805 80.856802
6000 1 2 0.0 27.126380 18.616953 78.873921
6001 1 1 0.0 39.475547 20.447135 81.901978
6002 1 1 0.0 42.581778 17.617939 83.513594
6003 1 1 0.0 41.349447 12.131476 85.357247
6004 1 1 0.0 42.724060 13.619129 83.575339
6005 1 2 0.0 38.521957 22.776610 81.447365
6006 1 2 0.0 42.258337 14.353124 81.625113
6007 1 2 0.0 39.435608 19.490309 83.423247
6008 1 2 0.0 41.720606 13.461293 84.212159
6009 1 2 0.0 43.931484 11.299580 84.403264
6010 1 2 0.0 38.852735 19.989061 80.341259
6011 1 2 0.0 42.862673 15.365267 84.068911
6012 1 2 0.0 41.050620 19.399364 82.312806
6013 1 1 0.0 35.268057 21.764927 82.317882
6014 1 1 0.0 38.551902 19.466544 84.222675
6015 1 1 0.0 37.281402 14.073797 85.697990
6016 1 1 0.0 38.664279 15.615248 84.187394
6017 1 2 0.0 34.309530 23.906471 81.844098
6018 1 2 0.0 38.089755 16.216042 82.247284
6019 1 2 0.0 35.264375 20.846903 83.729597
6020 1 2 0.0 37.630204 15.357051 84.661031
6021 1 2 0.0 39.978150 13.558096 85.119187
6022 1 2 0.0 34.552698 21.210627 80.720812
6023 1 2 0.0 38.846823 17.325471 84.728096
6024 1 2 0.0 36.913552 20.968030 82.900971
6025 1 1 0.0 30.940352 22.490509 82.180725
6026 1 1 0.0 34.365509 20.713335 84.362637
6027 1 1 0.0 33.014047 15.491020 85.524695
6028 1 1 0.0 34.429309 17.061818 84.271549
6029 1 2 0.0 29.996697 24.423886 81.672823
6030 1 2 0.0 33.771056 17.538287 82.355898
6031 1 2 0.0 30.949869 21.613050 83.479875
6032 1 2 0.0 33.358418 16.714479 84.589994
6033 1 2 0.0 35.828578 15.272915 85.306085
6034 1 2 0.0 30.146822 21.863125 80.570608
6035 1 2 0.0 34.657205 18.708037 84.835210
6036 1 2 0.0 32.644915 21.938974 82.928989
6037 1 1 0.0 26.490462 22.614177 81.481446
6038 1 1 0.0 30.025143 21.368089 83.942728
6039 1 1 0.0 28.542930 16.371419 84.825884
6040 1 1 0.0 30.020991 17.964620 83.833356
6041 1 2 0.0 25.581456 24.316636 80.922207
6042 1 2 0.0 29.304335 18.327410 81.958128
6043 1 2 0.0 26.487812 21.771118 82.657474
6044 1 2 0.0 28.903613 17.528727 83.994364
6045 1 2 0.0 31.487364 16.456769 84.976347
6046 1 2 0.0 25.633124 21.935885 79.880714
6047 1 2 0.0 30.296042 19.520363 84.397320
6048 1 2 0.0 28.245144 22.314166 82.398706
6049 1 1 0.0 22.867806 -34.704356 42.705543
6050 1 1 0.0 23.377700 -36.327792 45.080065
6051 1 1 0.0 15.426287 -39.331622 46.052805
6052 1 1 0.0 19.894678 -38.976693 44.986558
6053 1 2 0.0 24.243824 -33.046344 42.185035
6054 1 2 0.0 21.176282 -38.914672 43.128603
6055 1 2 0.0 20.752207 -35.052013 43.994959
6056 1 2 0.0 17.873112 -38.907579 45.162771
6057 1 2 0.0 19.162717 -40.192426 46.176612
6058 1 2 0.0 22.760906 -35.325351 41.100744
6059 1 2 0.0 21.325483 -37.742366 45.541043
6060 1 2 0.0 23.716099 -35.353073 43.541501
6061 1 1 0.0 18.458367 -33.151823 42.370471
6062 1 1 0.0 18.936040 -34.746772 44.524410
6063 1 1 0.0 11.409830 -37.121847 45.732368
6064 1 1 0.0 15.618845 -37.205773 44.426530
6065 1 2 0.0 19.761980 -31.613737 41.884802
6066 1 2 0.0 16.846762 -37.368139 42.523087
6067 1 2 0.0 16.440740 -33.239445 43.752222
6068 1 2 0.0 13.714085 -36.934660 44.747540
6069 1 2 0.0 14.903456 -38.364449 45.510669
6070 1 2 0.0 18.374843 -33.866274 40.765194
6071 1 2 0.0 16.979664 -36.005770 44.991256
6072 1 2 0.0 19.265956 -33.858421 43.072853
6073 1 1 0.0 14.246081 -31.154150 42.480971
6074 1 1 0.0 14.715543 -32.731547 44.414732
6075 1 1 0.0 7.682579 -34.470103 45.895336
6076 1 1 0.0 11.607656 -34.978233 44.349529
6077 1 2 0.0 15.453976 -29.744823 42.014417
6078 1 2 0.0 12.773042 -35.339116 42.417380
6079 1 2 0.0 12.340713 -30.994378 43.950090
6080 1 2 0.0 9.825977 -34.511469 44.813253
6081 1 2 0.0 10.931184 -36.081796 45.336818
6082 1 2 0.0 14.188311 -31.935979 40.897984
6083 1 2 0.0 12.878954 -33.829819 44.901919
6084 1 2 0.0 15.020579 -31.921177 43.050529
6085 1 1 0.0 10.234178 -28.704044 43.044345
6086 1 1 0.0 10.712616 -30.289172 44.743784
6087 1 1 0.0 4.250990 -31.366522 46.552504
6088 1 1 0.0 7.858330 -32.298876 44.750474
6089 1 2 0.0 11.323280 -27.430898 42.582456
6090 1 2 0.0 8.951550 -32.834340 42.804502
6091 1 2 0.0 8.458439 -28.303899 44.601718
6092 1 2 0.0 6.211231 -31.633948 45.364244
6093 1 2 0.0 7.239180 -33.355114 45.643537
6094 1 2 0.0 10.205052 -29.525632 41.507896
6095 1 2 0.0 9.020215 -31.220141 45.267136
6096 1 2 0.0 10.979291 -29.542799 43.473056
6097 1 1 0.0 24.611583 -31.239678 46.251158
6098 1 1 0.0 25.340867 -33.052069 48.566994
6099 1 1 0.0 17.718066 -36.190688 49.606728
6100 1 1 0.0 22.052025 -35.808402 48.485430
6101 1 2 0.0 25.842499 -29.507136 45.735718
6102 1 2 0.0 23.227511 -35.683936 46.620377
6103 1 2 0.0 22.604922 -31.623869 47.558408
6104 1 2 0.0 20.060597 -35.716956 48.697074
6105 1 2 0.0 21.453231 -37.153364 49.647627
6106 1 2 0.0 24.455628 -31.831907 44.649749
6107 1 2 0.0 23.417884 -34.537905 49.035230
6108 1 2 0.0 25.541328 -31.968331 47.054413
6109 1 1 0.0 20.087856 -29.567495 45.973852
6110 1 1 0.0 20.813829 -31.308269 48.108627
6111 1 1 0.0 13.589545 -33.841172 49.337151
6112 1 1 0.0 17.680982 -33.868440 48.015562
6113 1 2 0.0 21.246480 -27.965981 45.489098
6114 1 2 0.0 18.792345 -33.964604 46.109298
6115 1 2 0.0 18.177934 -29.703455 47.357909
6116 1 2 0.0 15.794725 -33.594991 48.348313
6117 1 2 0.0 17.113026 -35.136951 49.087982
6118 1 2 0.0 19.942688 -30.253836 44.369207
6119 1 2 0.0 18.984692 -32.636209 48.578440
6120 1 2 0.0 20.990753 -30.329346 46.667058
6121 1 1 0.0 15.727292 -27.526915 46.065302
6122 1 1 0.0 16.469232 -29.206286 48.018152
6123 1 1 0.0 9.704326 -31.119836 49.474252
6124 1 1 0.0 13.531979 -31.545371 47.950957
6125 1 2 0.0 16.793260 -26.066430 45.595567
6126 1 2 0.0 14.573084 -31.838032 46.020077
6127 1 2 0.0 13.925593 -27.425800 47.521346
6128 1 2 0.0 11.756405 -31.094833 48.403506
6129 1 2 0.0 13.014002 -32.738438 48.941881
6130 1 2 0.0 15.596569 -28.281796 44.480228
6131 1 2 0.0 14.755147 -30.369476 48.504215
6132 1 2 0.0 16.609424 -28.324541 46.648606
6133 1 1 0.0 11.532565 -25.111903 46.531549
6134 1 1 0.0 12.304111 -26.751941 48.289591
6135 1 1 0.0 6.067841 -28.018379 50.027114
6136 1 1 0.0 9.602680 -28.843224 48.287353
6137 1 2 0.0 12.485686 -23.801334 46.062171
6138 1 2 0.0 10.566713 -29.309906 46.346824
6139 1 2 0.0 9.853116 -24.780236 48.059588
6140 1 2 0.0 7.947686 -28.213074 48.866296
6141 1 2 0.0 9.150510 -29.966771 49.199642
6142 1 2 0.0 11.420399 -25.908400 44.990155
6143 1 2 0.0 10.726643 -27.742383 48.807655
6144 1 2 0.0 12.396783 -25.955124 46.997841
6145 1 1 0.0 26.318369 -27.758617 49.796772
6146 1 1 0.0 27.253954 -29.750838 52.053923
6147 1 1 0.0 19.976928 -33.028214 53.160651
6148 1 1 0.0 24.161107 -32.612138 51.984302
6149 1 2 0.0 27.405791 -25.953830 49.286401
6150 1 2 0.0 25.226863 -32.425697 50.112151
6151 1 2 0.0 24.427251 -28.180870 51.121857
6152 1 2 0.0 22.208767 -32.502677 52.231377
6153 1 2 0.0 23.690613 -34.080765 53.118643
6154 1 2 0.0 26.113173 -28.322722 48.198754
6155 1 2 0.0 25.461877 -31.306437 52.529416
6156 1 2 0.0 27.321182 -28.562596 50.567325
6157 1 1 0.0 21.709923 -25.979879 49.577234
6158 1 1 0.0 22.670139 -27.858825 51.692844
6159 1 1 0.0 15.764668 -30.557492 52.941933
6160 1 1 0.0 19.723894 -30.519965 51.604594
6161 1 2 0.0 22.725144 -24.315898 49.093394
6162 1 2 0.0 20.716291 -30.549598 49.695510
6163 1 2 0.0 19.913662 -26.166749 50.963595
6164 1 2 0.0 17.864907 -30.249029 51.949085
6165 1 2 0.0 19.297993 -31.893923 52.665295
6166 1 2 0.0 21.503941 -26.638608 47.973220
6167 1 2 0.0 20.969827 -29.255550 52.165624
6168 1 2 0.0 22.699437 -26.792815 50.261264
6169 1 1 0.0 17.230651 -23.909489 49.649633
6170 1 1 0.0 18.230042 -25.684652 51.621572
6171 1 1 0.0 11.749807 -27.785100 53.053169
6172 1 1 0.0 15.466114 -28.118196 51.552386
6173 1 2 0.0 18.156252 -22.397483 49.176718
6174 1 2 0.0 16.381729 -28.341508 49.622775
6175 1 2 0.0 15.537931 -23.870644 51.092603
6176 1 2 0.0 13.705230 -27.689267 51.993760
6177 1 2 0.0 15.100745 -29.397556 52.546944
6178 1 2 0.0 17.028819 -24.637773 48.062473
6179 1 2 0.0 16.639965 -26.913945 52.106510
6180 1 2 0.0 18.211419 -24.733989 50.246684
6181 1 1 0.0 12.882668 -21.542667 50.018753
6182 1 1 0.0 13.931328 -23.232906 51.835399
6183 1 1 0.0 7.936753 -24.704303 53.501724
6184 1 1 0.0 11.385881 -25.410089 51.824233
6185 1 2 0.0 13.701345 -20.192988 49.541887
6186 1 2 0.0 12.220719 -25.806064 49.889145
6187 1 2 0.0 11.304171 -21.284135 51.517458
6188 1 2 0.0 9.731395 -24.820632 52.368347
6189 1 2 0.0 11.094292 -26.598912 52.755747
6190 1 2 0.0 12.690324 -22.314279 48.472414
6191 1 2 0.0 12.470212 -24.285344 52.348173
6192 1 2 0.0 13.856686 -22.387070 50.522626
6193 1 1 0.0 27.990829 -24.262352 53.342386
6194 1 1 0.0 29.120482 -26.425892 55.540853
6195 1 1 0.0 22.205575 -29.845970 56.714573
6196 1 1 0.0 26.225800 -29.390148 55.483173
6197 1 2 0.0 28.936112 -22.387388 52.837085
6198 1 2 0.0 27.178721 -29.142279 53.603925
6199 1 2 0.0 26.221350 -24.724070 54.685306
6200 1 2 0.0 24.320807 -29.266659 55.765681
6201 1 2 0.0 25.879188 -30.977360 56.589659
6202 1 2 0.0 27.736442 -24.799023 51.747759
6203 1 2 0.0 27.461055 -28.049968 56.023602
6204 1 2 0.0 29.058899 -25.137366 54.080237
6205 1 1 0.0 23.325103 -22.389214 53.180616
6206 1 1 0.0 24.506480 -24.399209 55.277060
6207 1 1 0.0 17.935576 -27.271055 56.546716
6208 1 1 0.0 21.749123 -27.161241 55.193626
6209 1 2 0.0 24.198368 -20.663649 52.697690
6210 1 2 0.0 22.620428 -27.124089 53.281721
6211 1 2 0.0 21.648030 -22.629378 54.569282
6212 1 2 0.0 19.925477 -26.897285 55.549858
6213 1 2 0.0 21.460359 -28.636630 56.242608
6214 1 2 0.0 23.059116 -23.020806 51.577233
6215 1 2 0.0 22.936547 -25.864618 55.752808
6216 1 2 0.0 24.393158 -23.249362 53.855469
6217 1 1 0.0 18.754562 -20.301165 53.233965
6218 1 1 0.0 19.997474 -22.166391 55.224992
6219 1 1 0.0 13.817074 -24.464619 56.632085
6220 1 1 0.0 17.409273 -24.696252 55.153815
6221 1 2 0.0 19.541337 -18.737338 52.757869
6222 1 2 0.0 18.198249 -24.849160 53.225473
6223 1 2 0.0 17.175775 -20.327959 54.663860
6224 1 2 0.0 15.670961 -24.293874 55.584013
6225 1 2 0.0 17.191092 -26.058950 56.152007
6226 1 2 0.0 18.483191 -21.003117 51.644717
6227 1 2 0.0 18.532766 -23.462868 55.708806
6228 1 2 0.0 19.825624 -21.149086 53.844762
6229 1 1 0.0 14.280763 -17.994686 53.505957
6230 1 1 0.0 15.591756 -19.730787 55.381206
6231 1 1 0.0 9.853450 -21.421494 56.976334
6232 1 1 0.0 13.204813 -21.997662 55.361112
6233 1 2 0.0 14.966627 -16.604413 53.021603
6234 1 2 0.0 13.910284 -22.321076 53.431466
6235 1 2 0.0 12.807603 -17.813640 54.975328
6236 1 2 0.0 11.558529 -21.454318 55.870399
6237 1 2 0.0 13.067885 -23.249868 56.311851
6238 1 2 0.0 14.010569 -18.741466 51.954673
6239 1 2 0.0 14.248165 -20.847488 55.888691
6240 1 2 0.0 15.355974 -18.837238 54.047410
6241 1 1 0.0 29.630797 -20.751697 56.888001
6242 1 1 0.0 30.942865 -23.078461 59.027782
6243 1 1 0.0 24.405898 -26.645190 60.268496
6244 1 1 0.0 28.248805 -26.143996 58.982045
6245 1 2 0.0 30.435108 -18.808464 56.387768
6246 1 2 0.0 29.086153 -25.835307 57.095699
6247 1 2 0.0 27.988702 -21.254193 58.248756
6248 1 2 0.0 26.398941 -26.010241 59.299984
6249 1 2 0.0 28.021976 -27.845053 60.060675
6250 1 2 0.0 29.327451 -21.261664 55.296764
6251 1 2 0.0 29.417902 -24.769883 59.517788
6252 1 2 0.0 30.756703 -21.693670 57.593149
6253 1 1 0.0 24.933764 -18.795661 56.783998
6254 1 1 0.0 26.323888 -20.929950 58.861277
6255 1 1 0.0 20.102534 -23.982032 60.151498
6256 1 1 0.0 23.757746 -23.792893 58.782658
6257 1 2 0.0 25.666425 -17.009340 56.301986
6258 1 2 0.0 24.506035 -23.688757 56.867933
6259 1 2 0.0 23.381109 -19.091377 58.174969
6260 1 2 0.0 21.977027 -23.540113 59.150630
6261 1 2 0.0 23.601522 -25.365954 59.819921
6262 1 2 0.0 24.608571 -19.400582 55.181246
6263 1 2 0.0 24.885872 -22.463982 59.339992
6264 1 2 0.0 26.072705 -19.699351 57.449674
6265 1 1 0.0 20.297926 -16.701458 56.818296
6266 1 1 0.0 21.771183 -18.651327 58.828411
6267 1 1 0.0 15.904763 -21.157503 60.211001
6268 1 1 0.0 19.360908 -21.279219 58.755243
6269 1 2 0.0 20.947411 -15.085556 56.339019
6270 1 2 0.0 20.022136 -21.360718 56.828171
6271 1 2 0.0 18.837789 -16.797090 58.235116
6272 1 2 0.0 17.652560 -20.908027 59.174266
6273 1 2 0.0 19.284821 -22.722479 59.757070
6274 1 2 0.0 19.958383 -17.377277 55.226961
6275 1 2 0.0 20.433109 -20.015998 59.311101
6276 1 2 0.0 21.451396 -17.569534 57.442840
6277 1 1 0.0 15.724284 -14.466824 56.993161
6278 1 1 0.0 17.283673 -16.244706 58.927014
6279 1 1 0.0 11.814945 -18.168000 60.450944
6280 1 1 0.0 15.057301 -18.604684 58.897992
6281 1 2 0.0 16.279057 -13.034624 56.501318
6282 1 2 0.0 15.633114 -18.853723 56.973788
6283 1 2 0.0 14.360662 -14.367407 58.433197
6284 1 2 0.0 13.426417 -18.112525 59.372451
6285 1 2 0.0 15.069444 -19.918477 59.867956
6286 1 2 0.0 15.378174 -15.188706 55.436933
6287 1 2 0.0 16.058596 -17.427751 59.429209
6288 1 2 0.0 16.892568 -15.304665 57.572195
6289 1 1 0.0 31.239457 -17.227176 60.433615
6290 1 1 0.0 32.722649 -19.709331 62.514711
6291 1 1 0.0 26.579163 -23.426706 63.822418
6292 1 1 0.0 30.231927 -22.874729 62.480917
6293 1 2 0.0 31.903818 -15.217473 59.938451
6294 1 2 0.0 30.951233 -22.505881 60.587473
6295 1 2 0.0 29.730257 -17.771705 61.812205
6296 1 2 0.0 28.444654 -22.734316 62.834287
6297 1 2 0.0 30.120998 -24.685122 63.531690
6298 1 2 0.0 30.887536 -17.711210 58.845770
6299 1 2 0.0 31.334037 -21.467086 63.011974
6300 1 2 0.0 32.416025 -18.232171 61.106061
6301 1 1 0.0 26.536144 -15.199326 60.387379
6302 1 1 0.0 28.123024 -17.451384 62.445494
6303 1 1 0.0 22.265717 -20.690539 63.756281
6304 1 1 0.0 25.750481 -20.415336 62.371690
6305 1 2 0.0 27.129485 -13.353041 59.906282
6306 1 2 0.0 26.373977 -20.244060 60.454144
6307 1 2 0.0 25.112944 -15.552767 61.780656
6308 1 2 0.0 24.019953 -20.177752 62.751403
6309 1 2 0.0 25.722418 -22.082485 63.397234
6310 1 2 0.0 26.152543 -15.778037 58.785259
6311 1 2 0.0 26.818468 -19.054012 62.927176
6312 1 2 0.0 27.738587 -16.143018 61.043880
6313 1 1 0.0 21.860035 -13.110052 60.402627
6314 1 1 0.0 23.550950 -15.139349 62.431831
6315 1 1 0.0 18.011962 -17.863152 63.789917
6316 1 1 0.0 21.320651 -17.866886 62.356672
6317 1 2 0.0 22.373778 -11.441860 59.920170
6318 1 2 0.0 21.853046 -17.875999 60.430868
6319 1 2 0.0 20.523112 -13.277616 61.806373
6320 1 2 0.0 19.649329 -17.531308 62.764520
6321 1 2 0.0 21.381783 -19.388047 63.362133
6322 1 2 0.0 21.453533 -13.759888 58.809205
6323 1 2 0.0 22.340705 -16.573175 62.913397
6324 1 2 0.0 23.088318 -13.995141 61.040918
6325 1 1 0.0 17.211577 -10.958349 60.480365
6326 1 1 0.0 19.005978 -12.774103 62.472821
6327 1 1 0.0 13.819231 -14.942506 63.925554
6328 1 1 0.0 16.941894 -15.230313 62.434871
6329 1 2 0.0 17.637069 -9.482997 59.981034
6330 1 2 0.0 17.387653 -15.403181 60.516109
6331 1 2 0.0 15.961582 -10.944572 61.891067
6332 1 2 0.0 15.333271 -14.794177 62.874502
6333 1 2 0.0 17.097735 -16.603959 63.424061
6334 1 2 0.0 16.791179 -11.655170 58.919192
6335 1 2 0.0 17.900262 -14.025440 62.969727
6336 1 2 0.0 18.465129 -11.788733 61.096980
6337 1 1 0.0 32.817447 -13.689070 63.979229
6338 1 1 0.0 34.460640 -16.318915 66.001641
6339 1 1 0.0 28.726138 -20.191018 67.376341
6340 1 1 0.0 32.176237 -19.582968 65.979789
6341 1 2 0.0 33.342763 -11.614623 63.489134
6342 1 2 0.0 32.775236 -19.154678 64.079247
6343 1 2 0.0 31.446519 -14.276853 65.375654
6344 1 2 0.0 30.458839 -19.439421 66.368590
6345 1 2 0.0 32.177470 -21.498334 67.002706
6346 1 2 0.0 32.417472 -14.147991 62.394775
6347 1 2 0.0 33.210362 -18.142079 66.506160
6348 1 2 0.0 34.037628 -14.753222 64.618973
6349 1 1 0.0 28.132370 -11.600265 63.990761
6350 1 1 0.0 29.904236 -13.963689 66.029710
6351 1 1 0.0 24.425233 -17.396647 67.361064
6352 1 1 0.0 27.727755 -17.028820 65.960722
6353 1 2 0.0 28.587634 -9.694785 63.510578
6354 1 2 0.0 28.224787 -16.790279 64.040355
6355 1 2 0.0 26.843559 -12.013562 65.386342
6356 1 2 0.0 26.054491 -16.810344 66.352175
6357 1 2 0.0 27.823611 -18.786580 66.974547
6358 1 2 0.0 27.691170 -12.153228 62.389272
6359 1 2 0.0 28.734706 -15.634917 66.514360
6360 1 2 0.0 29.391075 -12.580489 64.638085
6361 1 1 0.0 23.440507 -9.526780 63.986958
6362 1 1 0.0 25.336660 -11.630398 66.035251
6363 1 1 0.0 20.138117 -14.581205 67.368833
6364 1 1 0.0 23.288284 -14.459125 65.958100
6365 1 2 0.0 23.820089 -7.806110 63.501320
6366 1 2 0.0 23.690768 -14.394891 64.033566
6367 1 2 0.0 22.231289 -9.769314 65.377630
6368 1 2 0.0 21.660853 -14.163467 66.354773
6369 1 2 0.0 23.481887 -16.055600 66.967196
6370 1 2 0.0 22.968140 -10.150738 62.391450
6371 1 2 0.0 24.255393 -13.134308 66.515693
6372 1 2 0.0 24.736172 -10.425805 64.638995
6373 1 1 0.0 18.741749 -7.468865 63.967569
6374 1 1 0.0 20.758093 -9.318685 66.018628
6375 1 1 0.0 15.865097 -11.744221 67.400164
6376 1 1 0.0 18.857727 -11.874048 65.971751
6377 1 2 0.0 19.039881 -5.949219 63.460749
6378 1 2 0.0 19.172949 -11.968946 64.058430
6379 1 2 0.0 17.609431 -7.544680 65.348937
6380 1 2 0.0 17.278021 -11.498630 66.376554
6381 1 2 0.0 19.152014 -13.305845 66.980165
6382 1 2 0.0 18.248443 -8.140375 62.401451
6383 1 2 0.0 19.772472 -10.640168 66.510245
6384 1 2 0.0 20.072945 -8.289111 64.621765
6385 1 1 0.0 34.364911 -10.137445 67.524844
6386 1 1 0.0 36.156978 -12.907282 69.488570
6387 1 1 0.0 30.847151 -16.938343 70.930263
6388 1 1 0.0 34.082169 -16.268963 69.478660
6389 1 2 0.0 34.751990 -7.999931 67.039817
6390 1 2 0.0 34.558748 -15.782008 67.571021
6391 1 2 0.0 33.137587 -10.769682 68.939103
6392 1 2 0.0 32.441863 -16.125778 69.902893
6393 1 2 0.0 34.191900 -18.285009 70.473722
6394 1 2 0.0 33.917544 -10.572125 65.943780
6395 1 2 0.0 35.047133 -14.795005 70.000346
6396 1 2 0.0 35.621669 -11.256893 68.131885
6397 1 1 0.0 29.722471 -7.998492 67.594143
6398 1 1 0.0 31.667583 -10.466894 69.613927
6399 1 1 0.0 26.581128 -14.100386 70.965846
6400 1 1 0.0 29.689742 -13.633442 69.549754
6401 1 2 0.0 30.040881 -6.034576 67.114874
6402 1 2 0.0 30.058709 -13.327545 67.626567
6403 1 2 0.0 28.572960 -8.473762 68.992029
6404 1 2 0.0 28.080740 -13.437949 69.952948
6405 1 2 0.0 29.905335 -15.478386 70.551860
6406 1 2 0.0 29.224501 -8.526176 65.993285
6407 1 2 0.0 30.634689 -12.206753 70.101544
6408 1 2 0.0 31.030224 -9.011788 68.232290
6409 1 1 0.0 25.039257 -5.951602 67.571290
6410 1 1 0.0 27.128294 -8.124464 69.638671
6411 1 1 0.0 22.282991 -11.311507 70.947749
6412 1 1 0.0 25.263719 -11.055887 69.559529
6413 1 2 0.0 25.286314 -4.178294 67.082471
6414 1 2 0.0 25.535204 -10.917343 67.636264
6415 1 2 0.0 23.962232 -6.272143 68.948886
6416 1 2 0.0 23.686958 -10.804399 69.945026
6417 1 2 0.0 25.585097 -12.725112 70.572259
6418 1 2 0.0 24.502021 -6.549749 65.973694
6419 1 2 0.0 26.177129 -9.699372 70.117988
6420 1 2 0.0 26.394910 -6.861505 68.237073
6421 1 1 0.0 20.314599 -3.998284 67.454773
6422 1 1 0.0 22.539920 -5.878400 69.564436
6423 1 1 0.0 17.952022 -8.572802 70.874775
6424 1 1 0.0 20.804454 -8.535688 69.508630
6425 1 2 0.0 20.487420 -2.433262 66.940465
6426 1 2 0.0 20.988562 -8.550783 67.600752
6427 1 2 0.0 19.304025 -4.167641 68.806807
6428 1 2 0.0 19.260223 -8.225617 69.878606
6429 1 2 0.0 21.231972 -10.023939 70.536270
6430 1 2 0.0 19.749550 -4.644146 65.883710
6431 1 2 0.0 21.675029 -7.271827 70.050763
6432 1 2 0.0 21.715870 -4.805732 68.146549
6433 1 1 0.0 35.881511 -6.572150 71.070458
6434 1 1 0.0 37.811141 -9.474168 72.975499
6435 1 1 0.0 32.942121 -13.668625 74.484186
6436 1 1 0.0 35.949547 -12.932614 72.977532
6437 1 2 0.0 36.131074 -4.373230 70.590501
6438 1 2 0.0 36.301712 -12.387841 71.062795
6439 1 2 0.0 34.803159 -7.250048 72.502552
6440 1 2 0.0 34.393602 -12.793310 73.437196
6441 1 2 0.0 36.164134 -15.045049 73.944737
6442 1 2 0.0 35.387563 -6.983534 69.492785
6443 1 2 0.0 36.843984 -11.425661 73.494532
6444 1 2 0.0 37.167709 -7.742985 71.644798
6445 1 1 0.0 31.306380 -4.393977 71.197525
6446 1 1 0.0 33.412842 -6.960886 73.198144
6447 1 1 0.0 28.733391 -10.801747 74.570629
6448 1 1 0.0 31.636371 -10.229164 73.138786
6449 1 2 0.0 31.489155 -2.372385 70.719170
6450 1 2 0.0 31.875718 -9.855845 71.212778
6451 1 2 0.0 30.301132 -4.933362 72.597716
6452 1 2 0.0 30.098666 -10.060546 73.553720
6453 1 2 0.0 31.967520 -12.157858 74.129173
6454 1 2 0.0 30.752504 -4.896869 69.597298
6455 1 2 0.0 32.518269 -8.769438 73.688728
6456 1 2 0.0 32.655879 -5.436844 71.826496
6457 1 1 0.0 26.656485 -2.384609 71.155621
6458 1 1 0.0 28.925925 -4.621585 73.242090
6459 1 1 0.0 24.446643 -8.054096 74.526666
6460 1 1 0.0 27.246993 -7.657191 73.160957
6461 1 2 0.0 26.772735 -0.558525 70.663621
6462 1 2 0.0 27.386364 -7.443360 71.238961
6463 1 2 0.0 25.716212 -2.786234 72.520143
6464 1 2 0.0 25.727703 -7.454139 73.535279
6465 1 2 0.0 27.691423 -9.396592 74.177322
6466 1 2 0.0 26.055297 -2.956972 69.555938
6467 1 2 0.0 28.105976 -6.268405 73.720284
6468 1 2 0.0 28.064660 -3.302300 71.835151
6469 1 1 0.0 21.930600 -0.546814 70.941977
6470 1 1 0.0 24.351830 -2.453438 73.110243
6471 1 1 0.0 20.080136 -5.428336 74.349385
6472 1 1 0.0 22.782214 -5.215315 73.045510
6473 1 2 0.0 21.980326 1.064619 70.420180
6474 1 2 0.0 22.834534 -5.148716 71.143073
6475 1 2 0.0 21.045923 -0.813727 72.264677
6476 1 2 0.0 21.280028 -4.975229 73.380657
6477 1 2 0.0 23.337704 -6.758301 74.092375
6478 1 2 0.0 21.294778 -1.166598 69.365970
6479 1 2 0.0 23.608214 -3.920573 73.591281
6480 1 2 0.0 23.394313 -1.338786 71.671334
6481 1 1 0.0 37.366400 -2.992811 74.616073
6482 1 1 0.0 39.421911 -6.018951 76.462428
6483 1 1 0.0 35.010550 -10.381541 78.038108
6484 1 1 0.0 37.777579 -9.573461 76.476404
6485 1 2 0.0 37.479086 -0.734149 74.141184
6486 1 2 0.0 38.003427 -8.971805 74.554569
6487 1 2 0.0 36.442514 -3.717596 76.066002
6488 1 2 0.0 36.313430 -9.441643 76.971499
6489 1 2 0.0 38.093338 -11.777930 77.415753
6490 1 2 0.0 36.826855 -3.381933 73.041790
6491 1 2 0.0 38.599892 -8.033475 76.988718
6492 1 2 0.0 38.674685 -4.211003 75.157710
6493 1 1 0.0 32.883927 -0.786643 74.800907
6494 1 1 0.0 35.139489 -3.445398 76.782360
6495 1 1 0.0 30.881951 -7.500686 78.175411
6496 1 1 0.0 33.567326 -6.815801 76.727818
6497 1 2 0.0 32.932303 1.291848 74.323466
6498 1 2 0.0 33.675523 -6.375024 74.798990
6499 1 2 0.0 32.028040 -1.392344 76.203402
6500 1 2 0.0 32.108103 -6.678035 77.154493
6501 1 2 0.0 34.009779 -8.824754 77.706487
6502 1 2 0.0 32.275058 -1.265254 73.201311
6503 1 2 0.0 34.385024 -5.322737 77.275912
6504 1 2 0.0 34.267661 -1.855482 75.420701
6505 1 1 0.0 28.292699 1.173975 74.739952
6506 1 1 0.0 30.729727 -1.121849 76.845510
6507 1 1 0.0 26.629432 -4.809208 78.105582
6508 1 1 0.0 29.238265 -4.263132 76.762386
6509 1 2 0.0 28.279976 3.052948 74.244772
6510 1 2 0.0 29.244364 -3.973003 74.841659
6511 1 2 0.0 27.493882 0.688094 76.091400
6512 1 2 0.0 27.783381 -4.112865 77.125533
6513 1 2 0.0 29.800927 -6.070077 77.782385
6514 1 2 0.0 27.628405 0.627407 73.138183
6515 1 2 0.0 30.042117 -2.841506 77.322579
6516 1 2 0.0 29.745730 0.251669 75.433229
6517 1 1 0.0 23.590935 2.885021 74.429182
6518 1 1 0.0 26.194694 0.955757 76.656050
6519 1 1 0.0 22.250226 -2.311337 77.823995
6520 1 1 0.0 24.791647 -1.913298 76.582390
6521 1 2 0.0 23.519999 4.543866 73.899896
6522 1 2 0.0 24.711392 -1.763023 74.685394
6523 1 2 0.0 22.836465 2.516406 75.722546
6524 1 2 0.0 23.338187 -1.747918 76.882709
6525 1 2 0.0 25.469717 -3.509253 77.648480
6526 1 2 0.0 22.885115 2.291849 72.848229
6527 1 2 0.0 25.572812 -0.586843 77.131800
6528 1 2 0.0 25.109269 2.111268 75.196119
6529 1 1 0.0 38.818152 0.601206 78.161687
6530 1 1 0.0 40.987260 -2.540600 79.949358
6531 1 1 0.0 37.051481 -7.076462 81.592031
6532 1 1 0.0 39.564783 -6.190645 79.975276
6533 1 2 0.0 38.794511 2.917916 77.691867
6534 1 2 0.0 39.662486 -5.533154 78.046343
6535 1 2 0.0 38.054444 -0.171738 79.629451
6536 1 2 0.0 38.200168 -6.070065 80.505802
6537 1 2 0.0 39.977936 -8.482655 80.886769
6538 1 2 0.0 38.234203 0.233195 76.590795
6539 1 2 0.0 40.313100 -4.617467 80.482904
6540 1 2 0.0 40.140811 -0.660122 78.670622
6541 1 1 0.0 34.454824 2.823635 78.404288
6542 1 1 0.0 36.846655 0.080013 80.366577
6543 1 1 0.0 33.026676 -4.197115 81.780194
6544 1 1 0.0 35.482017 -3.393013 80.316850
6545 1 2 0.0 34.370075 4.958223 77.927762
6546 1 2 0.0 35.457537 -2.884770 78.385201
6547 1 2 0.0 33.753626 2.149321 79.809089
6548 1 2 0.0 34.108737 -3.290228 80.755265
6549 1 2 0.0 36.031381 -5.478611 81.283800
6550 1 2 0.0 33.791949 2.368759 76.805325
6551 1 2 0.0 36.234233 -1.866247 80.863096
6552 1 2 0.0 35.864938 1.732591 79.014906
6553 1 1 0.0 29.948754 4.723772 78.324283
6554 1 1 0.0 32.539988 2.374597 80.448930
6555 1 1 0.0 28.832048 -1.577294 81.684498
6556 1 1 0.0 31.237838 -0.873883 80.363815
6557 1 2 0.0 29.809052 6.655721 77.825923
6558 1 2 0.0 31.109438 -0.506396 78.444357
6559 1 2 0.0 29.296332 4.150307 79.662656
6560 1 2 0.0 29.854543 -0.780907 80.715786
6561 1 2 0.0 31.913726 -2.745643 81.387448
6562 1 2 0.0 29.222127 4.203056 76.720427
6563 1 2 0.0 31.985866 0.581148 80.924875
6564 1 2 0.0 31.438638 3.800160 79.031307
6565 1 1 0.0 25.297600 6.296335 77.916386
6566 1 1 0.0 28.069956 4.348451 80.201858
6567 1 1 0.0 24.463805 0.777205 81.298605
6568 1 1 0.0 26.833943 1.369672 80.119269
6569 1 2 0.0 25.108717 8.003572 77.379612
6570 1 2 0.0 26.620187 1.605737 78.227716
6571 1 2 0.0 24.677888 5.821664 79.180416
6572 1 2 0.0 25.436119 1.455462 80.384761
6573 1 2 0.0 27.628976 -0.277401 81.204584
6574 1 2 0.0 24.522347 5.730439 76.330488
6575 1 2 0.0 27.570171 2.728610 80.672318
6576 1 2 0.0 26.862406 5.543657 78.720904
6577 1 1 0.0 40.234626 4.210847 81.707301
6578 1 1 0.0 42.504175 0.962422 83.436287
6579 1 1 0.0 39.063415 -3.752411 85.145954
6580 1 1 0.0 41.308865 -2.782836 83.474147
6581 1 2 0.0 40.075108 6.583858 81.242550
6582 1 2 0.0 41.276657 -2.070705 81.538117
6583 1 2 0.0 39.637150 3.388408 83.192900
6584 1 2 0.0 40.051977 -2.677472 84.040105
6585 1 2 0.0 41.815466 -5.157671 84.357784
6586 1 2 0.0 39.607741 3.862640 80.139800
6587 1 2 0.0 41.980949 -1.176155 83.977090
6588 1 2 0.0 41.563421 2.910892 82.183534
6589 1 1 0.0 36.018644 6.437048 82.007670
6590 1 1 0.0 38.533048 3.616004 83.950794
6591 1 1 0.0 35.167356 -0.890897 85.384977
6592 1 1 0.0 37.379531 0.039732 83.905881
6593 1 2 0.0 35.802101 8.626887 81.532058
6594 1 2 0.0 37.220829 0.615410 81.971413
6595 1 2 0.0 35.477804 5.691674 83.414776
6596 1 2 0.0 36.100080 0.103169 84.356038
6597 1 2 0.0 38.031188 -2.118712 84.861113
6598 1 2 0.0 35.302845 6.005310 80.409338
6599 1 2 0.0 38.064802 1.600641 84.450280
6600 1 2 0.0 37.446762 5.327814 82.609112
6601 1 1 0.0 31.625930 8.264214 81.908614
6602 1 1 0.0 34.357137 5.867534 84.052350
6603 1 1 0.0 31.055571 1.640940 85.263414
6604 1 1 0.0 33.246178 2.510285 83.965243
6605 1 2 0.0 31.361465 10.249196 81.407073
6606 1 2 0.0 32.981955 2.956264 82.047054
6607 1 2 0.0 31.125189 7.599610 83.233913
6608 1 2 0.0 31.942051 2.541217 84.306039
6609 1 2 0.0 34.030001 0.576598 84.992511
6610 1 2 0.0 30.837671 7.769466 80.302671
6611 1 2 0.0 33.937696 3.999294 84.527170
6612 1 2 0.0 33.144156 7.342818 82.629385
6613 1 1 0.0 27.053586 9.685806 81.403590
6614 1 1 0.0 29.979768 7.723546 83.747665
6615 1 1 0.0 26.723243 3.835738 84.773215
6616 1 1 0.0 28.910951 4.632524 83.656149
6617 1 2 0.0 26.749854 11.442392 80.859327
6618 1 2 0.0 28.562591 4.956679 81.770037
6619 1 2 0.0 26.573534 9.100413 82.638286
6620 1 2 0.0 27.576032 4.633583 83.886812
6621 1 2 0.0 29.816982 2.936305 84.760689
6622 1 2 0.0 26.209215 9.148010 79.812747
6623 1 2 0.0 29.602331 6.024647 84.212836
6624 1 2 0.0 28.656216 8.957229 82.245688
6625 1 1 0.0 41.612752 7.837471 85.252916
6626 1 1 0.0 43.968332 4.492316 86.923216
6627 1 1 0.0 41.044169 -0.407955 88.699876
6628 1 1 0.0 43.006489 0.651898 86.973019
6629 1 2 0.0 41.317671 10.264954 84.793233
6630 1 2 0.0 42.842670 1.417276 85.029891
6631 1 2 0.0 41.188050 6.964103 86.756349
6632 1 2 0.0 41.866184 0.737745 87.574408
6633 1 2 0.0 43.602344 -1.800717 87.828800
6634 1 2 0.0 40.944768 7.507544 83.688806
6635 1 2 0.0 43.599612 2.292598 87.471276
6636 1 2 0.0 42.938689 6.503809 85.696446
6637 1 1 0.0 37.574770 10.053869 85.611052
6638 1 1 0.0 40.196814 7.163521 87.535010
6639 1 1 0.0 37.303687 2.418167 88.989759
6640 1 1 0.0 39.258538 3.483202 87.494913
6641 1 2 0.0 37.227853 12.298052 85.136354
6642 1 2 0.0 38.964034 4.126239 85.557624
6643 1 2 0.0 37.200448 9.234776 87.020462
6644 1 2 0.0 38.081419 3.502586 87.956810
6645 1 2 0.0 40.007540 1.255993 88.438426
6646 1 2 0.0 36.807266 9.644603 84.013351
6647 1 2 0.0 39.875161 5.078805 88.037464
6648 1 2 0.0 39.011774 8.930814 86.203317
6649 1 1 0.0 33.326065 11.794487 85.492946
6650 1 1 0.0 36.181788 9.356651 87.655769
6651 1 1 0.0 33.301576 4.844462 88.842330
6652 1 1 0.0 35.263962 5.888978 87.566672
6653 1 2 0.0 32.939362 13.832518 84.988224
6654 1 2 0.0 34.862458 6.414691 85.649752
6655 1 2 0.0 32.982786 11.034863 86.805170
6656 1 2 0.0 34.047154 5.852753 87.896293
6657 1 2 0.0 36.150017 3.896477 88.597574
6658 1 2 0.0 32.476778 11.325899 83.884916
6659 1 2 0.0 35.898288 7.412552 88.129466
6660 1 2 0.0 34.863392 10.879128 86.227462
6661 1 1 0.0 28.863185 13.051531 84.890794
6662 1 1 0.0 31.927212 11.079474 87.293473
6663 1 1 0.0 29.031995 6.862003 88.247825
6664 1 1 0.0 31.025355 7.873703 87.193028
6665 1 2 0.0 28.448234 14.858405 84.339043
6666 1 2 0.0 30.541054 8.288504 85.312358
6667 1 2 0.0 28.528194 12.350312 86.096156
6668 1 2 0.0 29.761140 7.784512 87.388864
6669 1 2 0.0 32.035926 6.130484 88.316794
6670 1 2 0.0 27.949684 12.542885 83.295007
6671 1 2 0.0 31.672228 9.299632 87.753354
6672 1 2 0.0 30.494275 12.350329 85.770473
6673 1 1 0.0 42.948160 11.483017 88.798530
6674 1 1 0.0 45.373575 8.052218 90.410146
6675 1 1 0.0 42.990629 2.958940 92.253799
6676 1 1 0.0 44.652905 4.116311 90.471891
6677 1 2 0.0 42.517633 13.963024 88.343917
6678 1 2 0.0 44.355858 4.933263 88.521665
6679 1 2 0.0 42.703466 10.557146 90.319798
6680 1 2 0.0 43.638981 4.177878 91.108711
6681 1 2 0.0 45.333466 1.591431 91.299816
6682 1 2 0.0 42.241436 11.169538 87.237811
6683 1 2 0.0 45.163646 5.791828 90.965462
6684 1 2 0.0 44.261169 10.121148 89.209358
6685 1 1 0.0 39.122325 13.674486 89.214434
6686 1 1 0.0 41.835312 10.723908 91.119227
6687 1 1 0.0 39.435234 5.730360 92.594542
6688 1 1 0.0 41.117146 6.938495 91.083945
6689 1 2 0.0 38.646577 15.972016 88.740650
6690 1 2 0.0 40.685207 7.648748 89.143835
6691 1 2 0.0 38.921381 12.778715 90.626149
6692 1 2 0.0 40.051743 6.908630 91.557583
6693 1 2 0.0 41.958073 4.646994 92.015739
6694 1 2 0.0 38.304533 13.286926 87.617364
6695 1 2 0.0 41.663070 8.569492 91.624648
6696 1 2 0.0 40.558040 12.542487 89.797522
6697 1 1 0.0 35.051778 15.313433 89.077277
6698 1 1 0.0 38.014817 12.841500 91.259189
6699 1 1 0.0 35.572308 8.031804 92.421246
6700 1 1 0.0 37.292157 9.261639 91.168100
6701 1 2 0.0 34.545804 17.404466 88.569374
6702 1 2 0.0 36.751720 9.868473 89.252450
6703 1 2 0.0 34.872445 14.454442 90.376427
6704 1 2 0.0 36.171635 9.152630 91.486546
6705 1 2 0.0 38.274151 7.213757 92.202637
6706 1 2 0.0 34.141932 14.871302 87.467160
6707 1 2 0.0 37.868613 10.820379 91.731761
6708 1 2 0.0 36.597926 14.408361 89.825540
6709 1 1 0.0 30.732509 16.390804 88.377998
6710 1 1 0.0 33.916679 14.413997 90.839280
6711 1 1 0.0 31.394984 9.852778 91.722435
6712 1 1 0.0 33.180979 11.090991 90.729908
6713 1 2 0.0 30.210733 18.248870 87.818758
6714 1 2 0.0 32.559068 11.599360 88.854680
6715 1 2 0.0 30.548689 15.568025 89.554025
6716 1 2 0.0 31.996021 10.905493 90.890916
6717 1 2 0.0 34.288926 9.303167 91.872899
6718 1 2 0.0 29.749402 15.912672 86.777266
6719 1 2 0.0 33.784038 12.551234 91.293872
6720 1 2 0.0 32.381674 15.720602 89.295258
6721 1 1 0.0 14.872759 -38.808890 49.602095
6722 1 1 0.0 15.021741 -40.503983 51.976617
6723 1 1 0.0 6.610493 -41.728266 52.949357
6724 1 1 0.0 11.050715 -42.342207 51.883110
6725 1 2 0.0 16.573030 -37.485445 49.081587
6726 1 2 0.0 12.315688 -42.557143 50.025155
6727 1 2 0.0 12.731885 -38.693627 50.891511
6728 1 2 0.0 9.091269 -41.840132 52.059323
6729 1 2 0.0 10.074520 -43.372168 53.073163
6730 1 2 0.0 14.634863 -39.392386 47.997295
6731 1 2 0.0 12.713412 -41.444319 52.437595
6732 1 2 0.0 15.561764 -39.624798 50.438053
6733 1 1 0.0 10.900159 -36.344755 49.267022
6734 1 1 0.0 11.023797 -38.005101 51.420962
6735 1 1 0.0 3.162975 -38.706735 52.628920
6736 1 1 0.0 7.255543 -39.693512 51.323082
6737 1 2 0.0 12.503936 -35.122867 48.781354
6738 1 2 0.0 8.419849 -40.116049 49.419638
6739 1 2 0.0 8.910867 -35.996598 50.648774
6740 1 2 0.0 5.453597 -39.019271 51.644092
6741 1 2 0.0 6.307799 -40.671312 52.407220
6742 1 2 0.0 10.665002 -37.024547 47.661746
6743 1 2 0.0 8.842513 -38.814101 51.887808
6744 1 2 0.0 11.536969 -37.208441 49.969405
6745 1 1 0.0 7.215794 -33.488270 49.377523
6746 1 1 0.0 7.335187 -35.129709 51.311284
6747 1 1 0.0 0.092911 -35.315739 52.791888
6748 1 1 0.0 3.816990 -36.655764 51.246081
6749 1 2 0.0 8.698413 -32.371554 48.910969
6750 1 2 0.0 4.877550 -37.258733 49.313931
6751 1 2 0.0 5.389319 -32.922636 50.846641
6752 1 2 0.0 2.177306 -35.816905 51.709805
6753 1 2 0.0 2.919099 -37.588105 52.233370
6754 1 2 0.0 6.991305 -34.239401 47.794536
6755 1 2 0.0 5.305440 -35.807491 51.798471
6756 1 2 0.0 7.807296 -34.403858 49.947080
6757 1 1 0.0 3.824388 -30.233005 49.940897
6758 1 1 0.0 3.950884 -31.883923 51.640336
6759 1 1 0.0 -2.591271 -31.547027 53.449055
6760 1 1 0.0 0.731303 -33.233055 51.647025
6761 1 2 0.0 5.161716 -29.223750 49.479007
6762 1 2 0.0 1.683856 -33.991010 49.701054
6763 1 2 0.0 2.176184 -29.460484 51.498270
6764 1 2 0.0 -0.734348 -32.229595 52.260796
6765 1 2 0.0 -0.100431 -34.131500 52.540089
6766 1 2 0.0 3.619325 -31.029123 48.404447
6767 1 2 0.0 2.097920 -32.429311 52.163688
6768 1 2 0.0 4.371773 -31.212328 50.369608
6769 1 1 0.0 17.320570 -35.800075 53.147709
6770 1 1 0.0 17.643194 -37.726867 55.463546
6771 1 1 0.0 9.523900 -39.153431 56.503280
6772 1 1 0.0 13.838713 -39.711755 55.381982
6773 1 2 0.0 18.895153 -34.372649 52.632270
6774 1 2 0.0 15.013474 -39.842894 53.516929
6775 1 2 0.0 15.278234 -35.743911 54.454960
6776 1 2 0.0 11.913502 -39.194348 55.593626
6777 1 2 0.0 12.964792 -40.896550 56.544179
6778 1 2 0.0 17.040950 -36.344932 51.546301
6779 1 2 0.0 15.445758 -38.764581 55.931781
6780 1 2 0.0 18.071940 -36.711560 53.950965
6781 1 1 0.0 13.262076 -33.194518 52.870404
6782 1 1 0.0 13.596861 -35.050657 55.005179
6783 1 1 0.0 5.996977 -35.971335 56.233702
6784 1 1 0.0 9.986897 -36.877503 54.912114
6785 1 2 0.0 14.737890 -31.879517 52.385650
6786 1 2 0.0 11.051605 -37.210329 53.005850
6787 1 2 0.0 11.367579 -32.916723 54.254460
6788 1 2 0.0 8.203523 -36.204958 55.244864
6789 1 2 0.0 9.159527 -37.994264 55.984534
6790 1 2 0.0 12.972759 -33.833607 51.265759
6791 1 2 0.0 11.525020 -35.954340 55.474992
6792 1 2 0.0 13.980088 -34.132654 53.563610
6793 1 1 0.0 9.442124 -30.264254 52.961854
6794 1 1 0.0 9.805702 -32.063857 54.914704
6795 1 1 0.0 2.787599 -32.478415 56.370804
6796 1 1 0.0 6.434287 -33.716833 54.847509
6797 1 2 0.0 10.797131 -29.067066 52.492119
6798 1 2 0.0 7.388138 -34.226458 52.916629
6799 1 2 0.0 7.704285 -29.778191 54.417898
6800 1 2 0.0 4.797076 -32.895133 55.300058
6801 1 2 0.0 5.671945 -34.770657 55.838433
6802 1 2 0.0 9.152179 -30.973385 51.376780
6803 1 2 0.0 7.881640 -32.831375 55.400767
6804 1 2 0.0 10.132166 -31.232865 53.545158
6805 1 1 0.0 5.864623 -27.003961 53.428101
6806 1 1 0.0 6.265571 -28.771516 55.186143
6807 1 1 0.0 -0.097145 -28.667731 56.923665
6808 1 1 0.0 3.177734 -30.233177 55.183905
6809 1 2 0.0 7.077194 -25.928925 52.958723
6810 1 2 0.0 4.018906 -30.896187 53.243375
6811 1 2 0.0 4.295738 -26.319016 54.956140
6812 1 2 0.0 1.696896 -29.261986 55.762847
6813 1 2 0.0 2.494606 -31.233254 56.096193
6814 1 2 0.0 5.583856 -27.757724 51.886707
6815 1 2 0.0 4.512068 -29.399692 55.704206
6816 1 2 0.0 6.527369 -28.013250 53.894393
6817 1 1 0.0 19.735778 -32.767307 56.693324
6818 1 1 0.0 20.221221 -34.914074 58.950475
6819 1 1 0.0 12.409788 -36.550482 60.057202
6820 1 1 0.0 16.585588 -37.043608 58.880853
6821 1 2 0.0 21.185752 -31.238479 56.182953
6822 1 2 0.0 17.666506 -37.090632 57.008703
6823 1 2 0.0 17.798101 -32.773154 58.018409
6824 1 2 0.0 14.702424 -36.517011 59.127929
6825 1 2 0.0 15.810382 -38.376757 60.015195
6826 1 2 0.0 19.414114 -33.274113 55.095306
6827 1 2 0.0 18.136634 -36.048061 59.425967
6828 1 2 0.0 20.542315 -33.768065 57.463877
6829 1 1 0.0 15.617451 -30.039476 56.473786
6830 1 1 0.0 16.151300 -32.080911 58.589395
6831 1 1 0.0 8.827141 -33.232013 59.838485
6832 1 1 0.0 12.701870 -34.046479 58.501146
6833 1 2 0.0 16.966643 -28.632640 55.989946
6834 1 2 0.0 13.664695 -34.288755 56.592061
6835 1 2 0.0 13.823015 -29.835834 57.860147
6836 1 2 0.0 10.944588 -33.382251 58.845637
6837 1 2 0.0 11.990566 -35.296759 59.561847
6838 1 2 0.0 15.274677 -30.638524 54.869772
6839 1 2 0.0 14.190486 -33.079465 59.062176
6840 1 2 0.0 16.409074 -31.046122 57.157815
6841 1 1 0.0 11.687974 -27.054579 56.546185
6842 1 1 0.0 12.282393 -29.003079 58.518124
6843 1 1 0.0 5.502128 -29.661361 59.949720
6844 1 1 0.0 9.059944 -30.785566 58.448938
6845 1 2 0.0 12.916972 -25.776900 56.073270
6846 1 2 0.0 9.906147 -31.200487 56.519327
6847 1 2 0.0 10.043179 -26.652758 57.989155
6848 1 2 0.0 7.432435 -29.988127 58.890311
6849 1 2 0.0 8.428092 -31.956471 59.443496
6850 1 2 0.0 11.334302 -27.722449 54.959024
6851 1 2 0.0 10.465229 -29.861812 59.003062
6852 1 2 0.0 12.468570 -28.070639 57.143236
6853 1 1 0.0 7.950442 -23.808404 56.915305
6854 1 1 0.0 8.611233 -25.684557 58.731951
6855 1 1 0.0 2.440502 -25.832897 60.398276
6856 1 1 0.0 5.657267 -27.263643 58.720784
6857 1 2 0.0 9.040119 -22.666271 56.438439
6858 1 2 0.0 6.387464 -27.829826 56.785697
6859 1 2 0.0 6.464426 -23.216587 58.414010
6860 1 2 0.0 4.168178 -26.332302 59.264899
6861 1 2 0.0 5.116934 -28.361989 59.652298
6862 1 2 0.0 7.596721 -24.520628 55.368966
6863 1 2 0.0 6.958035 -26.398294 59.244724
6864 1 2 0.0 8.720166 -24.842451 57.419177
6865 1 1 0.0 22.120730 -29.712313 60.238938
6866 1 1 0.0 22.758876 -32.068112 62.437404
6867 1 1 0.0 15.270420 -33.921730 63.611125
6868 1 1 0.0 19.294642 -34.340794 62.379725
6869 1 2 0.0 23.446975 -28.084392 59.733636
6870 1 2 0.0 20.278569 -34.303570 60.500477
6871 1 2 0.0 20.293365 -29.782850 61.581858
6872 1 2 0.0 17.460734 -33.810676 62.662232
6873 1 2 0.0 18.614931 -35.816387 63.486211
6874 1 2 0.0 21.756923 -30.181751 58.644311
6875 1 2 0.0 20.789117 -33.297491 62.920153
6876 1 2 0.0 22.975727 -30.796473 60.976789
6877 1 1 0.0 17.966756 -26.879974 60.077168
6878 1 1 0.0 18.688423 -29.096938 62.173612
6879 1 1 0.0 11.653782 -30.489091 63.443268
6880 1 1 0.0 15.401776 -31.201645 62.090178
6881 1 2 0.0 19.190550 -25.382478 59.594242
6882 1 2 0.0 16.260697 -31.352667 60.178273
6883 1 2 0.0 16.277264 -26.754002 61.465834
6884 1 2 0.0 13.677509 -30.551830 62.446409
6885 1 2 0.0 14.802599 -32.580464 63.139160
6886 1 2 0.0 17.571214 -27.439621 58.473785
6887 1 2 0.0 16.840175 -30.190597 62.649360
6888 1 2 0.0 18.824934 -27.949613 60.752021
6889 1 1 0.0 13.951940 -23.858212 60.130516
6890 1 1 0.0 14.764825 -25.947019 62.121543
6891 1 1 0.0 8.234868 -26.862913 63.528637
6892 1 1 0.0 11.693290 -27.861346 62.050366
6893 1 2 0.0 15.056497 -22.500079 59.654420
6894 1 2 0.0 12.430949 -28.180286 60.122025
6895 1 2 0.0 12.404305 -23.544987 61.560411
6896 1 2 0.0 10.082118 -27.094690 62.480565
6897 1 2 0.0 11.187270 -29.145283 63.048559
6898 1 2 0.0 13.536015 -24.485416 58.541269
6899 1 2 0.0 13.055657 -26.898316 62.605358
6900 1 2 0.0 14.815684 -24.916555 60.741314
6901 1 1 0.0 10.078561 -20.643922 60.402509
6902 1 1 0.0 10.985694 -22.621258 62.277758
6903 1 1 0.0 5.018094 -23.038872 63.872886
6904 1 1 0.0 8.167245 -24.322013 62.257664
6905 1 2 0.0 11.047258 -19.433594 59.918154
6906 1 2 0.0 8.786698 -24.789521 60.328018
6907 1 2 0.0 8.678762 -20.150423 61.871879
6908 1 2 0.0 6.676253 -23.437470 62.766951
6909 1 2 0.0 7.764331 -25.515508 63.208403
6910 1 2 0.0 9.654149 -21.315159 58.851225
6911 1 2 0.0 9.433457 -23.423020 62.785243
6912 1 2 0.0 10.947511 -21.697914 60.943962
6913 1 1 0.0 24.477044 -26.636280 63.784552
6914 1 1 0.0 25.258252 -29.190700 65.924334
6915 1 1 0.0 18.107373 -31.268787 67.165047
6916 1 1 0.0 21.968177 -31.605422 65.878597
6917 1 2 0.0 25.680289 -24.911381 63.284320
6918 1 2 0.0 22.852308 -31.483955 63.992251
6919 1 2 0.0 22.765318 -26.774025 65.145307
6920 1 2 0.0 20.190315 -31.077128 66.196535
6921 1 2 0.0 21.380974 -33.217948 66.957226
6922 1 2 0.0 24.071162 -27.069113 62.193316
6923 1 2 0.0 23.405335 -30.514756 66.414339
6924 1 2 0.0 25.374130 -27.798266 64.489701
6925 1 1 0.0 20.310315 -23.716251 63.680549
6926 1 1 0.0 21.209129 -26.099477 65.757829
6927 1 1 0.0 14.477120 -27.742796 67.048050
6928 1 1 0.0 18.087534 -28.343841 65.679210
6929 1 2 0.0 21.409853 -22.129194 63.198538
6930 1 2 0.0 18.840715 -28.403000 63.764484
6931 1 2 0.0 18.730390 -23.671278 65.071521
6932 1 2 0.0 16.402788 -27.714169 66.047182
6933 1 2 0.0 17.596801 -29.846541 66.716473
6934 1 2 0.0 19.862685 -24.237123 62.077798
6935 1 2 0.0 19.474962 -27.288513 66.236544
6936 1 2 0.0 21.228362 -24.843652 64.346226
6937 1 1 0.0 16.233052 -20.674441 63.714848
6938 1 1 0.0 17.252700 -22.895430 65.724963
6939 1 1 0.0 10.984681 -24.081906 67.107553
6940 1 1 0.0 14.333858 -24.943745 65.651795
6941 1 2 0.0 17.214723 -19.235938 63.235571
6942 1 2 0.0 14.962107 -25.165483 63.724722
6943 1 2 0.0 14.786494 -20.453951 65.131668
6944 1 2 0.0 12.745245 -24.213988 66.070818
6945 1 2 0.0 13.949292 -26.336906 66.653622
6946 1 2 0.0 15.756166 -21.261468 62.123513
6947 1 2 0.0 15.652546 -23.940550 66.207653
6948 1 2 0.0 17.172944 -21.770184 64.339392
6949 1 1 0.0 12.246720 -17.508854 63.889713
6950 1 1 0.0 13.387459 -19.580393 65.823565
6951 1 1 0.0 7.633135 -20.283106 67.347496
6952 1 1 0.0 10.705813 -21.406592 65.794544
6953 1 2 0.0 13.096403 -16.229398 63.397870
6954 1 2 0.0 11.214627 -21.773590 63.870339
6955 1 2 0.0 10.936350 -17.118623 65.329749
6956 1 2 0.0 9.218858 -20.575347 66.269002
6957 1 2 0.0 10.435245 -22.692279 66.764508
6958 1 2 0.0 11.753518 -18.139456 62.333484
6959 1 2 0.0 11.936704 -20.472424 66.325761
6960 1 2 0.0 13.207578 -18.578253 64.468747
6961 1 1 0.0 26.805762 -23.539974 67.330167
6962 1 1 0.0 27.720688 -26.282940 69.411263
6963 1 1 0.0 20.921708 -28.592737 70.718970
6964 1 1 0.0 24.607730 -28.838901 69.377469
6965 1 2 0.0 27.886618 -21.720075 66.835003
6966 1 2 0.0 25.389511 -28.633307 67.484025
6967 1 2 0.0 25.214789 -23.747339 68.708757
6968 1 2 0.0 22.892428 -28.317561 69.730838
6969 1 2 0.0 24.110214 -30.583122 70.428242
6970 1 2 0.0 26.358016 -23.937039 65.742321
6971 1 2 0.0 25.986676 -27.701089 69.908525
6972 1 2 0.0 27.738779 -24.774401 68.002613
6973 1 1 0.0 22.648338 -20.548461 67.283931
6974 1 1 0.0 23.713992 -23.089000 69.342045
6975 1 1 0.0 17.297303 -24.993277 70.652833
6976 1 1 0.0 20.759755 -25.473629 69.268242
6977 1 2 0.0 23.624703 -18.872892 66.802834
6978 1 2 0.0 21.405494 -25.440391 67.350696
6979 1 2 0.0 21.182432 -20.587693 68.677207
6980 1 2 0.0 19.120759 -24.869587 69.647954
6981 1 2 0.0 20.373961 -27.095768 70.293786
6982 1 2 0.0 22.149300 -21.031179 65.681811
6983 1 2 0.0 22.095418 -24.373718 69.823728
6984 1 2 0.0 23.619803 -21.728580 67.940431
6985 1 1 0.0 18.530686 -17.502808 67.299179
6986 1 1 0.0 19.745829 -19.848157 69.328383
6987 1 1 0.0 13.750803 -21.317560 70.686469
6988 1 1 0.0 16.981333 -22.032477 69.253223
6989 1 2 0.0 19.391030 -15.984056 66.816721
6990 1 2 0.0 17.499323 -22.155827 67.327420
6991 1 2 0.0 17.188998 -17.379055 68.702925
6992 1 2 0.0 15.421226 -21.345461 69.661071
6993 1 2 0.0 16.714032 -23.531217 70.258685
6994 1 2 0.0 17.993992 -18.050065 65.705757
6995 1 2 0.0 18.255649 -20.988294 69.809949
6996 1 2 0.0 19.539985 -18.631248 67.937469
6997 1 1 0.0 14.453458 -14.402129 67.376917
6998 1 1 0.0 15.815574 -16.561175 69.369373
6999 1 1 0.0 10.283948 -17.563885 70.822106
7000 1 1 0.0 13.271735 -18.516243 69.331423
7001 1 2 0.0 15.186161 -13.052738 66.877585
7002 1 2 0.0 13.669911 -18.780895 67.412661
7003 1 2 0.0 13.235650 -14.119963 68.787619
7004 1 2 0.0 11.794477 -17.744497 69.771054
7005 1 2 0.0 13.128639 -19.891275 70.320612
7006 1 2 0.0 13.893094 -14.992286 65.815744
7007 1 2 0.0 14.466709 -17.545560 69.866279
7008 1 2 0.0 15.499195 -15.482575 67.993532
7009 1 1 0.0 29.107448 -20.423809 70.875781
7010 1 1 0.0 30.146885 -23.345407 72.898192
7011 1 1 0.0 23.714065 -25.894234 74.272893
7012 1 1 0.0 27.214216 -26.042069 72.876340
7013 1 2 0.0 30.066427 -18.510788 70.385686
7014 1 2 0.0 27.891280 -25.752559 70.975799
7015 1 2 0.0 27.642216 -20.703140 72.272206
7016 1 2 0.0 25.567827 -25.532689 73.265141
7017 1 2 0.0 26.803672 -27.912919 73.899258
7018 1 2 0.0 28.618170 -20.786017 69.291326
7019 1 2 0.0 28.533912 -24.857173 73.402712
7020 1 2 0.0 30.070341 -21.725383 71.515525
7021 1 1 0.0 24.980936 -17.376686 70.887313
7022 1 1 0.0 26.203311 -20.065753 72.926262
7023 1 1 0.0 20.114420 -22.240626 74.257615
7024 1 1 0.0 23.418803 -22.591343 72.857274
7025 1 2 0.0 25.835179 -15.613623 70.407130
7026 1 2 0.0 23.955494 -22.465227 70.936907
7027 1 2 0.0 23.633411 -17.503263 72.282894
7028 1 2 0.0 21.831624 -22.018273 73.248727
7029 1 2 0.0 23.134551 -24.328614 73.871099
7030 1 2 0.0 24.431181 -17.821875 69.285824
7031 1 2 0.0 24.701859 -21.446493 73.410912
7032 1 2 0.0 25.999495 -18.604576 71.534637
7033 1 1 0.0 20.844505 -14.343065 70.883510
7034 1 1 0.0 22.244111 -16.805119 72.931803
7035 1 1 0.0 16.532771 -18.569404 74.265385
7036 1 1 0.0 19.635532 -19.127372 72.854652
7037 1 2 0.0 21.585106 -12.744222 70.397872
7038 1 2 0.0 20.042415 -19.151161 70.930118
7039 1 2 0.0 19.611420 -14.319983 72.274181
7040 1 2 0.0 18.109707 -18.488776 73.251325
7041 1 2 0.0 19.481414 -20.728140 73.863748
7042 1 2 0.0 20.249049 -14.850890 69.288001
7043 1 2 0.0 20.864828 -18.041428 73.412244
7044 1 2 0.0 21.916614 -15.499601 71.535547
7045 1 1 0.0 16.697992 -11.323169 70.864121
7046 1 1 0.0 18.269538 -13.563196 72.915180
7047 1 1 0.0 12.969519 -14.880174 74.296716
7048 1 1 0.0 15.864275 -15.650294 72.868303
7049 1 2 0.0 17.315833 -9.903141 70.357301
7050 1 2 0.0 16.151727 -15.810736 70.954982
7051 1 2 0.0 15.575849 -11.153797 72.245489
7052 1 2 0.0 14.402205 -14.944062 73.273106
7053 1 2 0.0 15.843887 -17.111879 73.876717
7054 1 2 0.0 16.071864 -11.872934 69.298003
7055 1 2 0.0 17.022881 -14.641904 73.406797
7056 1 2 0.0 17.821737 -12.410406 71.518316
7057 1 1 0.0 31.382227 -17.287877 74.421396
7058 1 1 0.0 32.536963 -20.378198 76.385122
7059 1 1 0.0 26.484719 -23.173559 77.826815
7060 1 1 0.0 29.788001 -23.215263 76.375212
7061 1 2 0.0 32.219759 -15.283548 73.936369
7062 1 2 0.0 30.358118 -22.842143 74.467573
7063 1 2 0.0 30.047685 -17.641495 75.835655
7064 1 2 0.0 28.216825 -22.722807 76.799444
7065 1 2 0.0 29.461776 -25.207763 77.370273
7066 1 2 0.0 30.851876 -17.616224 72.840332
7067 1 2 0.0 31.047262 -21.983204 76.896898
7068 1 2 0.0 32.368954 -18.651319 75.028437
7069 1 1 0.0 27.308137 -14.200945 74.490695
7070 1 1 0.0 28.677140 -17.029778 76.510479
7071 1 1 0.0 22.928510 -19.484883 77.862398
7072 1 1 0.0 26.064825 -19.697117 76.446306
7073 1 2 0.0 28.041287 -12.351392 74.011426
7074 1 2 0.0 26.490924 -19.477689 74.523119
7075 1 2 0.0 26.083332 -14.417992 75.888581
7076 1 2 0.0 24.535466 -19.160306 76.849499
7077 1 2 0.0 25.878770 -21.545273 77.448412
7078 1 2 0.0 26.708373 -14.609243 72.889837
7079 1 2 0.0 27.294376 -18.506919 76.998096
7080 1 2 0.0 28.367487 -15.471678 75.128842
7081 1 1 0.0 23.174434 -11.195157 74.467841
7082 1 1 0.0 24.747529 -13.766300 76.535222
7083 1 1 0.0 19.330388 -15.837235 77.844301
7084 1 1 0.0 22.296379 -16.228359 76.456081
7085 1 2 0.0 23.796924 -9.516418 73.979023
7086 1 2 0.0 22.591299 -16.151416 74.532815
7087 1 2 0.0 22.053683 -11.276675 75.845438
7088 1 2 0.0 20.810544 -15.643794 76.841578
7089 1 2 0.0 22.251408 -17.927646 77.468811
7090 1 2 0.0 22.521175 -11.663829 72.870246
7091 1 2 0.0 23.480043 -15.099915 77.014540
7092 1 2 0.0 24.302791 -12.375212 75.133625
7093 1 1 0.0 18.980142 -8.271845 74.351325
7094 1 1 0.0 20.749267 -10.586383 76.460987
7095 1 1 0.0 15.689415 -12.231529 77.771326
7096 1 1 0.0 18.483137 -12.808471 76.405182
7097 1 2 0.0 19.485356 -6.780564 73.837017
7098 1 2 0.0 18.659696 -12.862791 74.497303
7099 1 2 0.0 17.956788 -8.219998 75.703358
7100 1 2 0.0 17.041665 -12.173686 76.775157
7101 1 2 0.0 18.580730 -14.353832 77.432822
7102 1 2 0.0 18.289463 -8.781138 72.780262
7103 1 2 0.0 19.605051 -11.761306 76.947315
7104 1 2 0.0 20.175075 -9.361647 75.043101
7105 1 1 0.0 33.629803 -14.131961 77.967010
7106 1 1 0.0 34.890472 -17.380945 79.872051
7107 1 1 0.0 29.233602 -20.430643 81.380738
7108 1 1 0.0 32.328937 -20.358347 79.874084
7109 1 2 0.0 34.346234 -12.038099 77.487052
7110 1 2 0.0 32.789979 -19.902015 77.959347
7111 1 2 0.0 32.430935 -14.562196 79.399104
7112 1 2 0.0 30.839315 -19.887818 80.333747
7113 1 2 0.0 32.084395 -22.467524 80.841289
7114 1 2 0.0 33.058968 -14.427543 76.389337
7115 1 2 0.0 33.526413 -19.078902 80.391084
7116 1 2 0.0 34.634236 -15.551917 78.541349
7117 1 1 0.0 29.629879 -11.021194 78.094076
7118 1 1 0.0 31.135283 -13.980918 80.094695
7119 1 1 0.0 25.739564 -16.726038 81.467181
7120 1 1 0.0 28.697762 -16.790896 80.035337
7121 1 2 0.0 30.242964 -9.086158 77.615722
7122 1 2 0.0 29.011766 -16.477758 78.109330
7123 1 2 0.0 28.532182 -11.331870 79.494267
7124 1 2 0.0 27.232256 -16.295659 80.450272
7125 1 2 0.0 28.606557 -18.745686 81.025725
7126 1 2 0.0 28.980845 -11.393262 76.493850
7127 1 2 0.0 29.872839 -15.554880 80.585280
7128 1 2 0.0 30.723642 -12.329782 78.723047
7129 1 1 0.0 25.520650 -8.059215 78.052172
7130 1 1 0.0 27.256148 -10.731754 80.138642
7131 1 1 0.0 22.143702 -13.121102 81.423217
7132 1 1 0.0 24.963903 -13.335469 80.057509
7133 1 2 0.0 26.026737 -6.300814 77.560173
7134 1 2 0.0 25.145984 -13.156597 78.135513
7135 1 2 0.0 24.516023 -8.249319 79.416695
7136 1 2 0.0 23.523784 -12.810561 80.431831
7137 1 2 0.0 25.024023 -15.129742 81.073874
7138 1 2 0.0 24.810477 -8.488959 76.452490
7139 1 2 0.0 26.101352 -12.163807 80.616835
7140 1 2 0.0 26.698627 -9.258166 78.731703
7141 1 1 0.0 21.300326 -5.248460 77.838529
7142 1 1 0.0 23.255081 -7.631002 80.006795
7143 1 1 0.0 18.443742 -9.618060 81.245936
7144 1 1 0.0 21.128440 -9.990886 79.942062
7145 1 2 0.0 21.695300 -3.685392 77.316732
7146 1 2 0.0 21.193854 -9.937092 78.039625
7147 1 2 0.0 20.378954 -5.318954 79.161228
7148 1 2 0.0 19.712985 -9.433488 80.277209
7149 1 2 0.0 21.339247 -11.617213 80.988927
7150 1 2 0.0 20.546134 -5.717071 76.262521
7151 1 2 0.0 22.213460 -8.903980 80.487833
7152 1 2 0.0 22.559568 -6.336572 78.567886
7153 1 1 0.0 35.849429 -10.955512 81.512624
7154 1 1 0.0 37.206352 -14.352777 83.358980
7155 1 1 0.0 31.960298 -17.665059 84.934660
7156 1 1 0.0 34.836349 -17.470701 83.372956
7157 1 2 0.0 36.445025 -8.773881 81.037736
7158 1 2 0.0 35.186255 -16.931662 81.451121
7159 1 2 0.0 34.791335 -11.464744 82.962553
7160 1 2 0.0 33.434768 -17.027217 83.868051
7161 1 2 0.0 34.670830 -19.691510 84.312305
7162 1 2 0.0 35.238848 -11.219550 79.938342
7163 1 2 0.0 35.970489 -16.143493 83.885270
7164 1 2 0.0 36.865251 -12.426466 82.054261
7165 1 1 0.0 31.946014 -7.837324 81.697458
7166 1 1 0.0 33.577288 -10.918798 83.678912
7167 1 1 0.0 28.547523 -13.964030 85.071963
7168 1 1 0.0 31.317344 -13.872434 83.624369
7169 1 2 0.0 32.440073 -5.817827 81.220018
7170 1 2 0.0 31.517767 -13.465221 81.695541
7171 1 2 0.0 30.979930 -8.244874 83.099954
7172 1 2 0.0 29.921853 -13.424200 84.051044
7173 1 2 0.0 31.317588 -15.929533 84.603038
7174 1 2 0.0 31.248493 -8.173857 80.097863
7175 1 2 0.0 32.436890 -12.590059 84.172464
7176 1 2 0.0 33.067629 -9.178636 82.317253
7177 1 1 0.0 27.883601 -4.935566 81.636504
7178 1 1 0.0 29.770118 -7.701604 83.742062
7179 1 1 0.0 24.973013 -10.421312 85.002134
7180 1 1 0.0 27.638244 -10.448825 83.658938
7181 1 2 0.0 28.275100 -3.097787 81.141324
7182 1 2 0.0 27.706569 -10.166790 81.738211
7183 1 2 0.0 26.999010 -5.238365 82.987951
7184 1 2 0.0 26.249676 -9.989314 84.022084
7185 1 2 0.0 27.799311 -12.334481 84.678937
7186 1 2 0.0 27.117342 -5.326552 80.034734
7187 1 2 0.0 28.728909 -9.233241 84.219131
7188 1 2 0.0 29.104393 -6.148668 82.329781
7189 1 1 0.0 23.659586 -2.253783 81.325733
7190 1 1 0.0 25.787736 -4.697673 83.552602
7191 1 1 0.0 21.233159 -7.040440 84.720547
7192 1 1 0.0 23.800730 -7.198037 83.478941
7193 1 2 0.0 23.946911 -0.618472 80.796448
7194 1 2 0.0 23.754655 -7.034024 81.581946
7195 1 2 0.0 22.843514 -2.451591 82.619098
7196 1 2 0.0 22.416802 -6.724073 83.779261
7197 1 2 0.0 24.119864 -8.902445 84.545031
7198 1 2 0.0 22.842753 -2.681356 79.744781
7199 1 2 0.0 24.848780 -6.070521 84.028351
7200 1 2 0.0 24.976088 -3.335843 82.092671
7201 1 1 0.0 38.039846 -7.757605 85.058239
7202 1 1 0.0 39.482847 -11.292251 86.845909
7203 1 1 0.0 34.664007 -14.875992 88.488583
7204 1 1 0.0 37.308975 -14.551170 86.871827
7205 1 2 0.0 38.514782 -5.489976 84.588419
7206 1 2 0.0 37.545735 -13.930054 84.942895
7207 1 2 0.0 37.127834 -8.348303 86.526003
7208 1 2 0.0 36.002184 -14.140058 87.402354
7209 1 2 0.0 37.219754 -16.878410 87.783320
7210 1 2 0.0 37.390439 -7.991480 83.487347
7211 1 2 0.0 38.377983 -13.175639 87.379456
7212 1 2 0.0 39.060434 -9.273776 85.567173
7213 1 1 0.0 34.256288 -4.649149 85.300840
7214 1 1 0.0 36.002401 -7.842800 87.263129
7215 1 1 0.0 31.352275 -11.198747 88.676746
7216 1 1 0.0 33.923070 -10.941271 87.213401
7217 1 2 0.0 34.632393 -2.546248 84.824314
7218 1 2 0.0 34.008419 -10.439648 85.281753
7219 1 2 0.0 33.426526 -5.156961 86.705641
7220 1 2 0.0 32.603992 -10.545675 87.651817
7221 1 2 0.0 34.011248 -13.096206 88.180351
7222 1 2 0.0 33.511125 -4.950891 83.701876
7223 1 2 0.0 34.985908 -9.611905 87.759648
7224 1 2 0.0 35.398892 -6.017817 85.911458
7225 1 1 0.0 30.264040 -1.824764 85.220835
7226 1 1 0.0 32.289689 -4.676055 87.345482
7227 1 1 0.0 27.818899 -7.738456 88.581050
7228 1 1 0.0 30.319656 -7.568664 87.260366
7229 1 2 0.0 30.542917 0.092049 84.722474
7230 1 2 0.0 30.273256 -7.182167 85.340909
7231 1 2 0.0 29.503593 -2.244570 86.559208
7232 1 2 0.0 28.988689 -7.180494 87.612338
7233 1 2 0.0 30.577369 -9.541959 88.284000
7234 1 2 0.0 29.442463 -2.177102 83.616979
7235 1 2 0.0 31.362984 -6.308455 87.821426
7236 1 2 0.0 31.520542 -3.047063 85.927859
7237 1 1 0.0 26.059682 0.710894 84.812937
7238 1 1 0.0 28.348484 -1.787424 87.098410
7239 1 1 0.0 24.058931 -4.499961 88.195157
7240 1 1 0.0 26.501020 -4.430855 87.015821
7241 1 2 0.0 26.242221 2.418821 84.276163
7242 1 2 0.0 26.343008 -4.154358 85.124267
7243 1 2 0.0 25.352418 0.380540 86.076968
7244 1 2 0.0 25.154318 -4.046579 87.281313
7245 1 2 0.0 26.923393 -6.210328 88.101136
7246 1 2 0.0 25.180903 0.324884 83.227040
7247 1 2 0.0 27.512166 -3.261955 87.568869
7248 1 2 0.0 27.426100 -0.360574 85.617455
7249 1 1 0.0 40.199170 -4.536856 88.603853
7250 1 1 0.0 41.717343 -8.197220 90.332839
7251 1 1 0.0 37.343477 -12.062161 92.042505
7252 1 1 0.0 39.744859 -11.597960 90.370699
7253 1 2 0.0 40.553509 -2.185032 88.139102
7254 1 2 0.0 39.866491 -10.895554 88.434669
7255 1 2 0.0 39.438863 -5.211627 90.089452
7256 1 2 0.0 38.540007 -11.224866 90.936657
7257 1 2 0.0 39.729097 -14.026177 91.254336
7258 1 2 0.0 39.512088 -4.742160 87.036352
7259 1 2 0.0 40.746619 -10.173320 90.873642
7260 1 2 0.0 41.217447 -6.092070 89.080085
7261 1 1 0.0 36.560324 -1.456390 88.904222
7262 1 1 0.0 38.409501 -4.752002 90.847345
7263 1 1 0.0 34.153646 -8.430010 92.281528
7264 1 1 0.0 36.514159 -7.996691 90.802433
7265 1 2 0.0 36.819594 0.728802 88.428610
7266 1 2 0.0 36.482922 -7.400356 88.867964
7267 1 2 0.0 35.871894 -2.068074 90.311328
7268 1 2 0.0 35.278258 -7.659693 91.252589
7269 1 2 0.0 36.686580 -10.244759 91.757664
7270 1 2 0.0 35.768448 -1.724158 87.305889
7271 1 2 0.0 37.518959 -6.619588 91.346832
7272 1 2 0.0 37.716600 -2.846695 89.505663
7273 1 1 0.0 32.663095 1.272361 88.805166
7274 1 1 0.0 34.815232 -1.655414 90.948901
7275 1 1 0.0 30.682262 -5.073454 92.159966
7276 1 1 0.0 33.008538 -4.695350 90.861795
7277 1 2 0.0 32.831526 3.267788 88.303625
7278 1 2 0.0 32.846365 -4.202997 88.943606
7279 1 2 0.0 32.031191 0.730940 90.130465
7280 1 2 0.0 31.741550 -4.384792 91.202591
7281 1 2 0.0 33.358350 -6.752327 91.889063
7282 1 2 0.0 31.786909 0.958633 87.199223
7283 1 2 0.0 34.003981 -3.389809 91.423722
7284 1 2 0.0 33.947752 0.046133 89.525936
7285 1 1 0.0 28.503250 3.643636 88.300141
7286 1 1 0.0 30.939191 1.098210 90.644217
7287 1 1 0.0 26.923039 -1.998646 91.669767
7288 1 1 0.0 29.230885 -1.690781 90.552700
7289 1 2 0.0 28.584234 5.424447 87.755879
7290 1 2 0.0 28.960353 -1.299319 88.666589
7291 1 2 0.0 27.908580 3.175126 89.534838
7292 1 2 0.0 27.927403 -1.402779 90.783364
7293 1 2 0.0 29.751097 -3.542114 91.657241
7294 1 2 0.0 27.563010 3.299929 86.709299
7295 1 2 0.0 30.205366 -0.479832 91.109388
7296 1 2 0.0 29.911789 2.587575 89.142240
7297 1 1 0.0 42.324694 -1.291276 92.149467
7298 1 1 0.0 43.906092 -5.064603 93.819768
7299 1 1 0.0 39.996881 -9.221701 95.596428
7300 1 1 0.0 42.141160 -8.608467 93.869571
7301 1 2 0.0 42.558349 1.142887 91.689785
7302 1 2 0.0 42.145704 -7.825767 91.926443
7303 1 2 0.0 41.722172 -2.052927 93.652901
7304 1 2 0.0 41.045969 -8.279495 94.470960
7305 1 2 0.0 42.195845 -11.131832 94.725352
7306 1 2 0.0 41.601402 -1.469893 90.585357
7307 1 2 0.0 43.073118 -7.133630 94.367828
7308 1 2 0.0 43.332933 -2.878796 92.592998
7309 1 1 0.0 38.857578 1.741350 92.507604
7310 1 1 0.0 40.796980 -1.645085 94.431562
7311 1 1 0.0 36.951382 -5.657559 95.886311
7312 1 1 0.0 39.089481 -5.037659 94.391465
7313 1 2 0.0 39.001204 4.007642 92.032906
7314 1 2 0.0 38.940096 -4.346346 92.454176
7315 1 2 0.0 38.315926 1.021876 93.917014
7316 1 2 0.0 37.944049 -4.765682 94.853362
7317 1 2 0.0 39.342188 -7.373810 95.334978
7318 1 2 0.0 38.020038 1.506643 90.909902
7319 1 2 0.0 40.034694 -3.611916 94.934016
7320 1 2 0.0 40.019561 0.335638 93.099869
7321 1 1 0.0 35.082387 4.354620 92.389497
7322 1 1 0.0 37.347281 1.359882 94.552321
7323 1 1 0.0 33.564420 -2.427653 95.738882
7324 1 1 0.0 35.705467 -1.829412 94.463224
7325 1 2 0.0 35.142840 6.428132 91.884775
7326 1 2 0.0 35.426362 -1.229679 92.546304
7327 1 2 0.0 34.583836 3.686550 93.701722
7328 1 2 0.0 34.509319 -1.603213 94.792844
7329 1 2 0.0 36.142477 -3.965805 95.494126
7330 1 2 0.0 34.152223 4.079558 90.781467
7331 1 2 0.0 36.652486 -0.477821 95.026017
7332 1 2 0.0 36.386996 3.130181 93.124014
7333 1 1 0.0 30.994073 6.541662 91.787345
7334 1 1 0.0 33.562531 3.957035 94.190024
7335 1 1 0.0 29.828371 0.460553 95.144377
7336 1 1 0.0 31.992613 1.020086 94.089580
7337 1 2 0.0 30.977248 8.395494 91.235595
7338 1 2 0.0 31.608804 1.529299 92.208910
7339 1 2 0.0 30.516172 5.928850 92.992707
7340 1 2 0.0 30.738781 1.204749 94.285416
7341 1 2 0.0 32.604817 -0.899621 95.213346
7342 1 2 0.0 29.992586 6.241284 90.191558
7343 1 2 0.0 32.930895 2.273620 94.649906
7344 1 2 0.0 32.436291 5.506218 92.667025
7345 1 1 0.0 44.412565 1.981965 95.695082
7346 1 1 0.0 46.043755 -1.890016 97.306697
7347 1 1 0.0 42.621617 -6.351953 99.150350
7348 1 1 0.0 44.493830 -5.578981 97.368443
7349 1 2 0.0 44.525232 4.496542 95.240468
7350 1 2 0.0 44.379349 -4.717273 95.418217
7351 1 2 0.0 43.974557 1.130343 97.216350
7352 1 2 0.0 43.516846 -5.300889 98.005263
7353 1 2 0.0 44.615706 -8.191131 98.196367
7354 1 2 0.0 43.654976 1.827740 94.134362
7355 1 2 0.0 45.352817 -4.052431 97.862014
7356 1 2 0.0 45.402115 0.369678 96.105910
7357 1 1 0.0 41.147277 4.944640 96.110985
7358 1 1 0.0 43.162548 1.479833 98.015779
7359 1 1 0.0 39.745118 -2.881022 99.491093
7360 1 1 0.0 41.647422 -2.062695 97.980497
7361 1 2 0.0 41.176553 7.290728 95.637202
7362 1 2 0.0 41.378265 -1.276192 96.040387
7363 1 2 0.0 40.758467 4.113010 97.522701
7364 1 2 0.0 40.600506 -1.862831 98.454134
7365 1 2 0.0 41.976083 -4.481395 98.912291
7366 1 2 0.0 40.265290 4.741943 94.513915
7367 1 2 0.0 42.531199 -0.587186 98.521200
7368 1 2 0.0 42.306080 3.530471 96.694074
7369 1 1 0.0 37.524223 7.420317 95.973829
7370 1 1 0.0 39.886595 4.369210 98.155741
7371 1 1 0.0 36.467248 0.197030 99.317798
7372 1 1 0.0 38.411266 1.028395 98.064652
7373 1 2 0.0 37.479588 9.571232 95.465926
7374 1 2 0.0 38.013916 1.737220 96.149002
7375 1 2 0.0 37.164424 6.619960 97.272978
7376 1 2 0.0 37.293508 1.162814 98.383098
7377 1 2 0.0 38.930068 -1.182707 99.099189
7378 1 2 0.0 36.540603 7.184113 94.363712
7379 1 2 0.0 39.309328 2.426772 98.628313
7380 1 2 0.0 38.839659 6.204029 96.722092
7381 1 1 0.0 33.537539 9.401015 95.274549
7382 1 1 0.0 36.222309 6.785922 97.735832
7383 1 1 0.0 32.779043 2.873432 98.618987
7384 1 1 0.0 34.789461 3.698760 97.626459
7385 1 2 0.0 33.427391 11.327807 94.715310
7386 1 2 0.0 34.291374 4.328936 95.751231
7387 1 2 0.0 33.181143 8.636988 96.450577
7388 1 2 0.0 33.592330 3.772330 97.787468
7389 1 2 0.0 35.487176 1.714558 98.769450
7390 1 2 0.0 32.474632 9.145401 93.673818
7391 1 2 0.0 35.692331 4.995224 98.190424
7392 1 2 0.0 35.004073 8.391960 96.191810
7393 1 1 0.0 6.182278 -41.098763 56.498647
7394 1 1 0.0 5.963382 -42.786252 58.873168
7395 1 1 0.0 -2.514401 -42.173743 59.845909
7396 1 1 0.0 1.690032 -43.727847 58.779662
7397 1 2 0.0 8.127299 -40.171767 55.978138
7398 1 2 0.0 2.879227 -44.209690 56.921707
7399 1 2 0.0 4.116235 -40.525971 57.788062
7400 1 2 0.0 -0.115671 -42.816287 58.955875
7401 1 2 0.0 0.515250 -44.523874 59.969715
7402 1 2 0.0 5.824509 -41.617477 54.893847
7403 1 2 0.0 3.506876 -43.208382 59.334147
7404 1 2 0.0 6.679778 -42.043711 57.334604
7405 1 1 0.0 2.832271 -37.838247 56.163574
7406 1 1 0.0 2.596093 -39.486353 58.317514
7407 1 1 0.0 -5.231777 -38.481740 59.525472
7408 1 1 0.0 -1.447019 -40.325227 58.219634
7409 1 2 0.0 4.661223 -36.989691 55.677905
7410 1 2 0.0 -0.400767 -40.988176 56.316190
7411 1 2 0.0 0.964331 -37.070591 57.545325
7412 1 2 0.0 -3.061895 -39.279384 58.540644
7413 1 2 0.0 -2.582804 -41.076430 59.303772
7414 1 2 0.0 2.456477 -38.451594 54.558297
7415 1 2 0.0 0.291895 -39.807527 58.784360
7416 1 2 0.0 3.268526 -38.818636 56.865957
7417 1 1 0.0 -0.151895 -34.256515 56.274074
7418 1 1 0.0 -0.388154 -35.885244 58.207836
7419 1 1 0.0 -7.501101 -34.510050 59.688440
7420 1 1 0.0 -4.152155 -36.619313 58.142632
7421 1 2 0.0 1.536121 -33.484627 55.807520
7422 1 2 0.0 -3.246011 -37.436174 56.210483
7423 1 2 0.0 -1.814074 -33.311467 57.743193
7424 1 2 0.0 -5.573174 -35.447582 58.606357
7425 1 2 0.0 -5.229479 -37.336836 59.129922
7426 1 2 0.0 -0.532607 -34.941827 54.691087
7427 1 2 0.0 -2.516150 -36.110845 58.695023
7428 1 2 0.0 0.228953 -35.277853 56.843632
7429 1 1 0.0 -2.764227 -30.348305 56.837449
7430 1 1 0.0 -2.995586 -31.987818 58.536888
7431 1 1 0.0 -9.312367 -30.252428 60.345607
7432 1 1 0.0 -6.429919 -32.613293 58.543577
7433 1 2 0.0 -1.241204 -29.650131 56.375559
7434 1 2 0.0 -5.662574 -33.558298 56.597606
7435 1 2 0.0 -4.207827 -29.239529 58.394822
7436 1 2 0.0 -7.645590 -31.318222 59.157347
7437 1 2 0.0 -7.435347 -33.311935 59.436640
7438 1 2 0.0 -3.135637 -31.081728 55.300999
7439 1 2 0.0 -4.922472 -32.122122 59.060240
7440 1 2 0.0 -2.440164 -31.422403 57.266160
7441 1 1 0.0 9.219667 -38.686499 60.044261
7442 1 1 0.0 9.120544 -40.637599 62.360098
7443 1 1 0.0 0.884406 -40.285402 63.399831
7444 1 1 0.0 4.978318 -41.758231 62.278533
7445 1 2 0.0 11.064292 -37.630935 59.528822
7446 1 2 0.0 6.097422 -42.138842 60.413481
7447 1 2 0.0 7.237154 -38.192607 61.351511
7448 1 2 0.0 3.209345 -40.839057 62.490178
7449 1 2 0.0 3.870133 -42.727458 63.440731
7450 1 2 0.0 8.829456 -39.158509 58.442852
7451 1 2 0.0 6.751406 -41.178668 62.828333
7452 1 2 0.0 9.757528 -39.738197 60.847516
7453 1 1 0.0 5.816176 -35.269403 59.766956
7454 1 1 0.0 5.744119 -37.154115 61.901730
7455 1 1 0.0 -1.876002 -36.419518 63.130254
7456 1 1 0.0 1.825836 -38.162216 61.808666
7457 1 2 0.0 7.540173 -34.302402 59.282201
7458 1 2 0.0 2.794103 -38.716141 59.902402
7459 1 2 0.0 4.025689 -34.590842 61.151012
7460 1 2 0.0 0.228734 -37.122021 62.141416
7461 1 2 0.0 0.777739 -39.075007 62.881085
7462 1 2 0.0 5.396237 -35.831356 58.162310
7463 1 2 0.0 3.526451 -37.591286 62.371544
7464 1 2 0.0 6.315730 -36.339957 60.460162
7465 1 1 0.0 2.715452 -31.586470 59.858406
7466 1 1 0.0 2.683669 -33.422158 61.811256
7467 1 1 0.0 -4.259473 -32.318339 63.267356
7468 1 1 0.0 -0.964266 -34.311734 61.744061
7469 1 2 0.0 4.296140 -30.708558 59.388671
7470 1 2 0.0 -0.142270 -35.014494 59.813181
7471 1 2 0.0 1.122732 -30.738187 61.314450
7472 1 2 0.0 -2.386558 -33.157293 62.196610
7473 1 2 0.0 -1.935325 -35.177039 62.734985
7474 1 2 0.0 2.279844 -32.216692 58.273332
7475 1 2 0.0 0.639597 -33.758116 62.297318
7476 1 2 0.0 3.181139 -32.680774 60.441710
7477 1 1 0.0 -0.077542 -27.633344 60.324653
7478 1 1 0.0 -0.065940 -29.445766 62.082695
7479 1 1 0.0 -6.257589 -27.976612 63.820217
7480 1 1 0.0 -3.395799 -30.209461 62.080457
7481 1 2 0.0 1.337781 -26.844109 59.855275
7482 1 2 0.0 -2.716821 -31.037798 60.139927
7483 1 2 0.0 -1.462505 -26.627149 61.852691
7484 1 2 0.0 -4.633238 -28.942639 62.659399
7485 1 2 0.0 -4.277942 -31.039304 62.992745
7486 1 2 0.0 -0.513782 -28.309128 58.783258
7487 1 2 0.0 -1.913486 -29.682305 62.600758
7488 1 2 0.0 0.352742 -28.761507 60.790944
7489 1 1 0.0 12.230364 -36.243835 63.589875
7490 1 1 0.0 12.242966 -38.444767 65.847027
7491 1 1 0.0 4.262381 -38.363689 66.953754
7492 1 1 0.0 8.234545 -39.742960 65.777405
7493 1 2 0.0 13.975092 -35.062451 63.079505
7494 1 2 0.0 9.280084 -40.021250 63.905254
7495 1 2 0.0 10.336732 -35.833001 64.914961
7496 1 2 0.0 6.508611 -38.823850 66.024481
7497 1 2 0.0 7.190876 -40.878295 66.911747
7498 1 2 0.0 11.807272 -36.669643 61.991857
7499 1 2 0.0 9.963342 -39.104118 66.322519
7500 1 2 0.0 12.802911 -37.394577 64.360429
7501 1 1 0.0 8.794725 -32.694460 63.370338
7502 1 1 0.0 8.877244 -34.802929 65.485947
7503 1 1 0.0 1.476867 -34.352641 66.735037
7504 1 1 0.0 5.085921 -35.981018 65.397698
7505 1 2 0.0 10.414801 -31.610552 62.886497
7506 1 2 0.0 5.974153 -36.424609 63.488613
7507 1 2 0.0 7.086018 -32.109828 64.756699
7508 1 2 0.0 3.512512 -34.954555 65.742189
7509 1 2 0.0 4.122473 -37.049158 66.458398
7510 1 2 0.0 8.331187 -33.205816 61.766323
7511 1 2 0.0 6.747613 -35.356620 65.958728
7512 1 2 0.0 9.351440 -33.847747 64.054367
7513 1 1 0.0 5.598781 -28.934627 63.442737
7514 1 1 0.0 5.760433 -30.965355 65.414675
7515 1 1 0.0 -1.002825 -30.150690 66.846272
7516 1 1 0.0 2.230141 -32.013437 65.345489
7517 1 2 0.0 7.073709 -27.951017 62.969821
7518 1 2 0.0 2.967364 -32.600566 63.415879
7519 1 2 0.0 4.078820 -28.188618 64.885706
7520 1 2 0.0 0.812108 -30.884775 65.786863
7521 1 2 0.0 1.361351 -33.021138 66.340048
7522 1 2 0.0 5.109805 -29.510853 61.855576
7523 1 2 0.0 3.801151 -31.413375 65.899614
7524 1 2 0.0 6.142704 -30.094737 64.039788
7525 1 1 0.0 2.646462 -24.960887 63.811857
7526 1 1 0.0 2.888487 -26.935227 65.628502
7527 1 1 0.0 -3.169865 -25.753574 67.294827
7528 1 1 0.0 -0.335874 -27.842379 65.617336
7529 1 2 0.0 3.956188 -24.079704 63.334990
7530 1 2 0.0 0.255539 -28.552296 63.682249
7531 1 2 0.0 1.322412 -24.063456 65.310561
7532 1 2 0.0 -1.589938 -26.612703 66.161451
7533 1 2 0.0 -1.099686 -28.798891 66.548850
7534 1 2 0.0 2.147903 -25.580420 62.265518
7535 1 2 0.0 1.120507 -27.276888 66.141276
7536 1 2 0.0 3.175901 -26.136226 64.315729
7537 1 1 0.0 15.216291 -33.772959 67.135490
7538 1 1 0.0 15.333090 -36.210863 69.333956
7539 1 1 0.0 7.621237 -36.411347 70.507677
7540 1 1 0.0 11.461289 -37.685703 69.276277
7541 1 2 0.0 16.861484 -32.468201 66.630188
7542 1 2 0.0 12.430214 -37.860865 67.397028
7543 1 2 0.0 13.416485 -33.449017 68.478410
7544 1 2 0.0 9.784216 -36.773743 69.558784
7545 1 2 0.0 10.480259 -38.980679 70.382762
7546 1 2 0.0 14.760074 -34.153214 65.540863
7547 1 2 0.0 13.145103 -36.988059 69.816705
7548 1 2 0.0 15.818236 -35.015570 67.873341
7549 1 1 0.0 11.768304 -30.113857 66.973719
7550 1 1 0.0 11.996517 -32.434126 69.070164
7551 1 1 0.0 4.827069 -32.281492 70.339819
7552 1 1 0.0 8.334260 -33.783094 68.986730
7553 1 2 0.0 13.285403 -28.914451 66.490793
7554 1 2 0.0 9.140635 -34.115228 67.074825
7555 1 2 0.0 10.145391 -29.627639 68.362386
7556 1 2 0.0 6.789996 -32.777805 69.342961
7557 1 2 0.0 7.452685 -35.000873 70.035711
7558 1 2 0.0 11.261701 -30.575389 65.370336
7559 1 2 0.0 9.956375 -33.104898 69.545912
7560 1 2 0.0 12.376477 -31.342971 67.648573
7561 1 1 0.0 8.496941 -26.299675 67.027068
7562 1 1 0.0 8.841790 -28.514393 69.018095
7563 1 1 0.0 2.267609 -28.005126 70.425188
7564 1 1 0.0 5.430542 -29.723675 68.946918
7565 1 2 0.0 9.867633 -25.210742 66.550972
7566 1 2 0.0 6.082392 -30.193733 67.018576
7567 1 2 0.0 7.052823 -25.661077 68.456963
7568 1 2 0.0 4.021846 -28.628589 69.377116
7569 1 2 0.0 4.660343 -30.868815 69.945111
7570 1 2 0.0 7.955910 -26.822803 65.437820
7571 1 2 0.0 6.968080 -29.076029 69.501909
7572 1 2 0.0 9.112979 -27.518954 67.637865
7573 1 1 0.0 5.405097 -22.327871 67.299061
7574 1 1 0.0 5.865953 -24.453985 69.174310
7575 1 1 0.0 -0.051903 -23.578978 70.769437
7576 1 1 0.0 2.747785 -25.509094 69.154216
7577 1 2 0.0 6.611331 -21.354081 66.814706
7578 1 2 0.0 3.252256 -26.098837 67.224570
7579 1 2 0.0 4.144112 -21.544995 68.768431
7580 1 2 0.0 1.481802 -24.324712 69.663502
7581 1 2 0.0 2.097725 -26.588071 70.104955
7582 1 2 0.0 4.846311 -22.892179 65.747777
7583 1 2 0.0 4.177652 -24.903317 69.681794
7584 1 2 0.0 6.027154 -23.544021 67.840514
7585 1 1 0.0 18.178772 -31.275379 70.681104
7586 1 1 0.0 18.392590 -33.938016 72.820886
7587 1 1 0.0 10.962168 -34.430290 74.061599
7588 1 1 0.0 14.660342 -35.589014 72.775149
7589 1 2 0.0 19.724687 -29.849470 70.180871
7590 1 2 0.0 15.549914 -35.660448 70.888802
7591 1 2 0.0 16.477453 -31.041934 72.041859
7592 1 2 0.0 13.037613 -34.690883 73.093087
7593 1 2 0.0 13.740222 -37.037608 73.853778
7594 1 2 0.0 17.689333 -31.610841 69.089868
7595 1 2 0.0 16.298360 -34.832793 73.310891
7596 1 2 0.0 18.805092 -32.603046 71.386253
7597 1 1 0.0 14.737179 -27.527896 70.577101
7598 1 1 0.0 15.102655 -30.048622 72.654380
7599 1 1 0.0 8.174772 -30.206337 73.944602
7600 1 1 0.0 11.571570 -31.569463 72.575762
7601 1 2 0.0 16.152180 -26.214311 70.095089
7602 1 2 0.0 12.294424 -31.789151 70.661036
7603 1 2 0.0 13.203859 -27.144337 71.968072
7604 1 2 0.0 10.061573 -30.592342 72.943734
7605 1 2 0.0 10.769274 -32.931538 73.613025
7606 1 2 0.0 14.188041 -27.940363 68.974350
7607 1 2 0.0 13.153425 -30.837064 73.133096
7608 1 2 0.0 15.391404 -28.826292 71.242778
7609 1 1 0.0 11.409138 -23.680710 70.611399
7610 1 1 0.0 11.927501 -26.068968 72.621515
7611 1 1 0.0 5.550968 -25.880266 74.004104
7612 1 1 0.0 8.636572 -27.441930 72.548347
7613 1 2 0.0 12.677094 -22.486869 70.132123
7614 1 2 0.0 9.202466 -27.793539 70.621274
7615 1 2 0.0 10.043799 -23.154408 72.028220
7616 1 2 0.0 7.241977 -26.387729 72.967370
7617 1 2 0.0 7.961509 -28.719849 73.550174
7618 1 2 0.0 10.817209 -24.151497 69.020065
7619 1 2 0.0 10.140088 -26.745668 73.104205
7620 1 2 0.0 12.091504 -24.952884 71.235943
7621 1 1 0.0 8.196512 -19.732190 70.786265
7622 1 1 0.0 8.865262 -22.000522 72.720117
7623 1 1 0.0 3.094408 -21.449797 74.244048
7624 1 1 0.0 5.853732 -23.207551 72.691095
7625 1 2 0.0 9.301375 -18.665303 70.294422
7626 1 2 0.0 6.271757 -23.675349 70.766891
7627 1 2 0.0 7.000666 -19.069391 72.226301
7628 1 2 0.0 4.580234 -22.076089 73.165554
7629 1 2 0.0 5.313106 -24.405016 73.661059
7630 1 2 0.0 7.579281 -20.242024 69.230036
7631 1 2 0.0 7.256664 -22.559828 73.222312
7632 1 2 0.0 8.905017 -20.983143 71.365299
7633 1 1 0.0 21.118660 -28.752069 74.226719
7634 1 1 0.0 21.422538 -31.627588 76.307815
7635 1 1 0.0 14.285977 -32.421803 77.615522
7636 1 1 0.0 17.832904 -33.454598 76.274020
7637 1 2 0.0 22.565470 -27.207070 73.731554
7638 1 2 0.0 18.640604 -33.421870 74.380576
7639 1 2 0.0 19.520305 -28.612574 75.605308
7640 1 2 0.0 16.269777 -32.576707 76.627390
7641 1 2 0.0 16.972064 -35.051089 77.324794
7642 1 2 0.0 20.596024 -29.043599 72.638873
7643 1 2 0.0 19.424206 -32.639820 76.805077
7644 1 2 0.0 21.764498 -30.158206 74.899165
7645 1 1 0.0 17.701521 -24.936772 74.180483
7646 1 1 0.0 18.196119 -27.646999 76.238597
7647 1 1 0.0 11.520086 -28.127357 77.549384
7648 1 1 0.0 14.798326 -29.340804 76.164793
7649 1 2 0.0 19.015257 -23.510267 73.699385
7650 1 2 0.0 15.436113 -29.447157 74.247247
7651 1 2 0.0 16.261453 -24.659960 75.573759
7652 1 2 0.0 13.327501 -28.398548 76.544506
7653 1 2 0.0 14.072840 -30.842084 77.190338
7654 1 2 0.0 17.110380 -25.300926 72.578363
7655 1 2 0.0 16.339211 -28.553736 76.720280
7656 1 2 0.0 18.396583 -26.298137 74.836983
7657 1 1 0.0 14.334862 -21.077152 74.195731
7658 1 1 0.0 15.017415 -23.628888 76.224935
7659 1 1 0.0 8.846671 -23.775184 77.583021
7660 1 1 0.0 11.847988 -25.167855 76.149775
7661 1 2 0.0 15.501579 -19.778856 73.713273
7662 1 2 0.0 12.327351 -25.399673 74.223972
7663 1 2 0.0 13.051146 -20.667869 75.599476
7664 1 2 0.0 10.472043 -24.161524 76.557623
7665 1 2 0.0 11.264751 -26.574093 77.155237
7666 1 2 0.0 13.693072 -21.496241 72.602309
7667 1 2 0.0 13.316979 -24.422024 76.706500
7668 1 2 0.0 15.077983 -22.396179 74.834021
7669 1 1 0.0 11.019513 -17.172482 74.273469
7670 1 1 0.0 11.885651 -19.573865 76.265924
7671 1 1 0.0 6.267799 -19.363996 77.718658
7672 1 1 0.0 8.981004 -20.936374 76.227975
7673 1 2 0.0 12.025164 -16.012148 73.774137
7674 1 2 0.0 9.312979 -21.280435 74.309212
7675 1 2 0.0 9.890833 -16.635119 75.684171
7676 1 2 0.0 7.704186 -19.865105 76.667606
7677 1 2 0.0 8.545662 -22.248497 77.217164
7678 1 2 0.0 10.345382 -17.628379 72.712295
7679 1 2 0.0 10.356709 -20.245269 76.762831
7680 1 2 0.0 11.808537 -18.452470 74.890083
7681 1 1 0.0 24.036417 -26.203552 77.772333
7682 1 1 0.0 24.423495 -29.280293 79.794744
7683 1 1 0.0 17.593148 -30.386664 81.169444
7684 1 1 0.0 20.979687 -31.283472 79.772892
7685 1 2 0.0 25.384219 -24.541409 77.282238
7686 1 2 0.0 21.703158 -31.146279 77.872350
7687 1 2 0.0 22.545393 -26.161371 79.168757
7688 1 2 0.0 19.481292 -30.432076 80.161693
7689 1 2 0.0 20.176565 -33.022328 80.795809
7690 1 2 0.0 23.480714 -26.452112 76.187878
7691 1 2 0.0 22.523247 -30.409974 80.299263
7692 1 2 0.0 24.696998 -27.681691 78.412077
7693 1 1 0.0 20.661422 -22.340591 77.783865
7694 1 1 0.0 21.277149 -25.229564 79.822814
7695 1 1 0.0 14.863079 -26.044659 81.154167
7696 1 1 0.0 18.014814 -27.097520 79.753825
7697 1 2 0.0 21.874700 -20.802385 77.303681
7698 1 2 0.0 18.566068 -27.089725 77.833459
7699 1 2 0.0 19.318191 -22.174531 79.179446
7700 1 2 0.0 16.587935 -26.196652 80.145279
7701 1 2 0.0 17.363746 -28.733069 80.767651
7702 1 2 0.0 20.028817 -22.657191 76.182376
7703 1 2 0.0 19.513981 -26.255256 80.307464
7704 1 2 0.0 21.392207 -23.758735 78.431189
7705 1 1 0.0 17.273837 -18.488685 77.780062
7706 1 1 0.0 18.111452 -21.194051 79.828354
7707 1 1 0.0 12.154371 -21.689319 81.161937
7708 1 1 0.0 15.064645 -22.901243 79.751204
7709 1 2 0.0 18.340827 -17.086429 77.294424
7710 1 2 0.0 15.456901 -23.011945 77.826669
7711 1 2 0.0 16.074543 -18.201066 79.170733
7712 1 2 0.0 13.711772 -21.949570 80.147876
7713 1 2 0.0 14.570012 -24.431456 80.760300
7714 1 2 0.0 16.583135 -18.856631 76.184553
7715 1 2 0.0 16.498646 -22.104950 80.308796
7716 1 2 0.0 18.072259 -19.848653 78.432099
7717 1 1 0.0 13.873455 -14.648015 77.760673
7718 1 1 0.0 14.926720 -17.173506 79.811732
7719 1 1 0.0 9.467502 -17.320347 81.193268
7720 1 1 0.0 12.129026 -18.694749 79.764854
7721 1 2 0.0 14.782116 -13.394003 77.253853
7722 1 2 0.0 12.375267 -18.913233 77.851534
7723 1 2 0.0 12.813958 -14.241374 79.142040
7724 1 2 0.0 10.852958 -17.690726 80.169658
7725 1 2 0.0 11.794918 -20.117780 80.773269
7726 1 2 0.0 13.143783 -15.050327 76.194555
7727 1 2 0.0 13.477319 -17.959001 80.303349
7728 1 2 0.0 14.737204 -15.951404 78.414868
7729 1 1 0.0 26.932146 -23.629948 81.317947
7730 1 1 0.0 27.395557 -26.896253 83.281673
7731 1 1 0.0 20.883891 -28.325206 84.723367
7732 1 1 0.0 24.100978 -29.076043 83.271764
7733 1 2 0.0 28.180968 -21.852523 80.832921
7734 1 2 0.0 24.737977 -28.834204 81.364124
7735 1 2 0.0 25.552787 -23.688410 82.732207
7736 1 2 0.0 22.672399 -28.257344 83.695996
7737 1 2 0.0 23.354052 -30.951831 84.266825
7738 1 2 0.0 26.343609 -23.836608 79.736883
7739 1 2 0.0 25.595655 -28.143492 83.793449
7740 1 2 0.0 27.602704 -25.173630 81.924989
7741 1 1 0.0 23.616904 -19.739377 81.387246
7742 1 1 0.0 24.345785 -22.796369 83.407030
7743 1 1 0.0 18.203781 -23.958289 84.758950
7744 1 1 0.0 21.221146 -24.839776 83.342857
7745 1 2 0.0 24.730513 -18.090671 80.907977
7746 1 2 0.0 21.684454 -24.717077 81.419670
7747 1 2 0.0 22.374076 -19.688053 82.785132
7748 1 2 0.0 19.842941 -23.986749 83.746051
7749 1 2 0.0 20.642142 -26.604727 84.344964
7750 1 2 0.0 22.943391 -20.009198 79.786389
7751 1 2 0.0 22.677808 -23.941721 83.894648
7752 1 2 0.0 24.378317 -21.208130 82.025394
7753 1 1 0.0 20.226001 -15.915239 81.364393
7754 1 1 0.0 21.209598 -18.764439 83.431774
7755 1 1 0.0 15.473917 -19.622431 84.740853
7756 1 1 0.0 18.286484 -20.642012 83.352632
7757 1 2 0.0 21.194817 -14.409564 80.875574
7758 1 2 0.0 18.591050 -20.630266 81.429367
7759 1 2 0.0 19.113928 -15.753923 82.741990
7760 1 2 0.0 16.961051 -19.751702 83.738130
7761 1 2 0.0 17.877269 -22.291902 84.365363
7762 1 2 0.0 19.487264 -16.232522 79.766798
7763 1 2 0.0 19.685058 -19.794403 83.911092
7764 1 2 0.0 21.074300 -17.310268 82.030177
7765 1 1 0.0 16.758195 -12.158623 81.247877
7766 1 1 0.0 17.988401 -14.799358 83.357539
7767 1 1 0.0 12.693188 -15.318323 84.667878
7768 1 1 0.0 15.297569 -16.482345 83.301734
7769 1 2 0.0 17.572179 -10.810813 80.733568
7770 1 2 0.0 15.458322 -16.573349 81.393855
7771 1 2 0.0 15.769912 -11.887998 82.599910
7772 1 2 0.0 14.026258 -15.552526 83.671709
7773 1 2 0.0 15.060674 -18.012555 84.329374
7774 1 2 0.0 15.974180 -12.507533 79.676814
7775 1 2 0.0 16.618363 -15.700840 83.843867
7776 1 2 0.0 17.690916 -13.479822 81.939653
7777 1 1 0.0 29.805603 -21.030977 84.863562
7778 1 1 0.0 30.338362 -24.475008 86.768603
7779 1 1 0.0 24.158153 -26.237346 88.277289
7780 1 1 0.0 27.196662 -26.832146 86.770636
7781 1 2 0.0 30.955403 -19.140080 84.383604
7782 1 2 0.0 27.745022 -26.485593 84.855898
7783 1 2 0.0 28.542276 -21.193433 86.295656
7784 1 2 0.0 25.843016 -26.052393 87.230299
7785 1 2 0.0 26.504427 -28.839442 87.737841
7786 1 2 0.0 29.184572 -21.196936 83.285888
7787 1 2 0.0 28.641184 -25.840036 87.287635
7788 1 2 0.0 30.481304 -22.633659 85.437901
7789 1 1 0.0 26.567918 -17.133073 84.990628
7790 1 1 0.0 27.401874 -20.347217 86.991247
7791 1 1 0.0 21.542184 -21.868238 88.363732
7792 1 1 0.0 24.417278 -22.567505 86.931889
7793 1 2 0.0 27.582645 -15.375072 84.512273
7794 1 2 0.0 24.791257 -22.329189 85.005882
7795 1 2 0.0 25.429098 -17.200513 86.390819
7796 1 2 0.0 23.092496 -21.768806 87.346824
7797 1 2 0.0 23.907983 -24.456986 87.922277
7798 1 2 0.0 25.854075 -17.356919 83.390402
7799 1 2 0.0 25.830590 -21.612993 87.481832
7800 1 2 0.0 27.354801 -18.646194 85.619599
7801 1 1 0.0 23.191499 -13.356980 84.948724
7802 1 1 0.0 24.311905 -16.340117 87.035194
7803 1 1 0.0 18.805345 -17.574579 88.319769
7804 1 1 0.0 21.513530 -18.390194 86.954061
7805 1 2 0.0 24.063757 -11.748484 84.456725
7806 1 2 0.0 21.729805 -18.254646 85.032065
7807 1 2 0.0 22.169493 -13.326674 86.313247
7808 1 2 0.0 20.219919 -17.567976 87.328383
7809 1 2 0.0 21.186528 -20.155442 87.970426
7810 1 2 0.0 22.405547 -13.624011 83.349042
7811 1 2 0.0 22.876258 -17.490443 87.513387
7812 1 2 0.0 24.084196 -14.781131 85.628255
7813 1 1 0.0 19.674072 -9.704695 84.735081
7814 1 1 0.0 21.070950 -12.451748 86.903347
7815 1 1 0.0 15.944939 -13.358054 88.142488
7816 1 1 0.0 18.486724 -14.299295 86.838613
7817 1 2 0.0 20.395826 -8.263078 84.213284
7818 1 2 0.0 18.562172 -14.260820 84.936176
7819 1 2 0.0 18.759087 -9.575472 86.057780
7820 1 2 0.0 17.224186 -13.450647 87.173761
7821 1 2 0.0 18.342989 -15.932916 87.885478
7822 1 2 0.0 18.836775 -10.000221 83.159073
7823 1 2 0.0 19.780029 -13.471047 87.384385
7824 1 2 0.0 20.669962 -11.038066 85.464438
7825 1 1 0.0 32.656178 -18.405946 88.409176
7826 1 1 0.0 33.251065 -22.015483 90.255532
7827 1 1 0.0 27.415619 -24.122579 91.831212
7828 1 1 0.0 30.266210 -24.551031 90.269507
7829 1 2 0.0 33.706836 -16.403355 87.934287
7830 1 2 0.0 30.723813 -24.099814 88.347672
7831 1 2 0.0 31.513351 -18.675813 89.859105
7832 1 2 0.0 28.992734 -23.816617 90.764602
7833 1 2 0.0 29.627153 -26.684337 91.208856
7834 1 2 0.0 32.003111 -18.532554 86.834894
7835 1 2 0.0 31.659145 -23.498659 90.781821
7836 1 2 0.0 33.332039 -20.060881 88.950813
7837 1 1 0.0 29.514341 -14.521540 88.594010
7838 1 1 0.0 30.445051 -17.881647 90.575464
7839 1 1 0.0 24.878244 -19.774433 91.968515
7840 1 1 0.0 27.602999 -20.280408 90.520921
7841 1 2 0.0 30.430982 -12.655466 88.116569
7842 1 2 0.0 27.886274 -19.925800 88.592093
7843 1 2 0.0 28.483232 -14.711882 89.996506
7844 1 2 0.0 26.336491 -19.542663 90.947596
7845 1 2 0.0 27.161021 -22.289465 91.499590
7846 1 2 0.0 28.760783 -14.700259 86.994415
7847 1 2 0.0 28.972043 -19.268683 91.069015
7848 1 2 0.0 30.321391 -16.072607 89.213805
7849 1 1 0.0 26.170697 -10.814325 88.533055
7850 1 1 0.0 27.418492 -13.921240 90.638614
7851 1 1 0.0 22.148884 -15.546128 91.898685
7852 1 1 0.0 24.745888 -16.145943 90.555489
7853 1 2 0.0 26.948111 -9.103673 88.037875
7854 1 2 0.0 24.873246 -15.885190 88.634763
7855 1 2 0.0 25.241695 -10.919884 89.884503
7856 1 2 0.0 23.488566 -15.398674 90.918636
7857 1 2 0.0 24.497830 -18.022138 91.575489
7858 1 2 0.0 25.338302 -11.031447 86.931286
7859 1 2 0.0 26.072370 -15.193239 91.115683
7860 1 2 0.0 27.102166 -12.261500 89.226332
7861 1 1 0.0 22.621941 -7.287203 88.222285
7862 1 1 0.0 24.174972 -10.131445 90.449154
7863 1 1 0.0 19.223253 -11.440340 91.617098
7864 1 1 0.0 21.696917 -12.146205 90.375493
7865 1 2 0.0 23.254093 -5.751890 87.692999
7866 1 2 0.0 21.687177 -11.976121 88.478498
7867 1 2 0.0 21.782425 -7.304955 89.515650
7868 1 2 0.0 20.447233 -11.385818 90.675813
7869 1 2 0.0 21.642193 -13.879368 91.441583
7870 1 2 0.0 21.732290 -7.529184 86.641332
7871 1 2 0.0 22.962846 -11.270349 90.924903
7872 1 2 0.0 23.675054 -8.626974 88.989222
7873 1 1 0.0 35.482840 -15.753679 91.954790
7874 1 1 0.0 36.132260 -19.515890 93.742461
7875 1 1 0.0 30.655683 -21.979936 95.385134
7876 1 1 0.0 33.308640 -22.231298 93.768379
7877 1 2 0.0 36.434146 -13.641163 91.484971
7878 1 2 0.0 33.673386 -21.675600 91.839446
7879 1 2 0.0 34.465167 -16.134512 93.422554
7880 1 2 0.0 32.120779 -21.548876 94.298905
7881 1 2 0.0 32.721217 -24.484949 94.679872
7882 1 2 0.0 34.798339 -15.842483 90.383899
7883 1 2 0.0 34.648354 -21.117731 94.276008
7884 1 2 0.0 36.153635 -17.453799 92.463725
7885 1 1 0.0 32.455965 -11.904543 92.197392
7886 1 1 0.0 33.474715 -15.398892 94.159681
7887 1 1 0.0 28.211876 -17.676739 95.573297
7888 1 1 0.0 30.777918 -17.977927 94.109953
7889 1 2 0.0 33.275339 -9.931659 91.720865
7890 1 2 0.0 30.969106 -17.506379 92.178305
7891 1 2 0.0 31.536438 -12.222109 93.602193
7892 1 2 0.0 29.574721 -17.308018 94.548369
7893 1 2 0.0 30.400787 -20.101437 95.076903
7894 1 2 0.0 31.663358 -12.039044 90.598428
7895 1 2 0.0 32.101682 -16.908120 94.656199
7896 1 2 0.0 33.277632 -13.486839 92.808010
7897 1 1 0.0 29.164213 -8.287976 92.117387
7898 1 1 0.0 30.529560 -11.508061 94.242033
7899 1 1 0.0 25.504970 -13.537776 95.477601
7900 1 1 0.0 27.983760 -13.909543 94.156918
7901 1 2 0.0 29.848628 -6.475927 91.619026
7902 1 2 0.0 28.021531 -13.522107 92.237460
7903 1 2 0.0 28.331299 -8.534494 93.455760
7904 1 2 0.0 26.767355 -13.244329 94.508889
7905 1 2 0.0 27.811248 -15.892103 95.180552
7906 1 2 0.0 28.286102 -8.455462 90.513530
7907 1 2 0.0 29.273603 -12.903081 94.717978
7908 1 2 0.0 30.128581 -9.751809 92.824410
7909 1 1 0.0 25.603243 -4.907787 91.709489
7910 1 1 0.0 27.301469 -7.839722 93.994961
7911 1 1 0.0 22.529088 -9.566713 95.091708
7912 1 1 0.0 24.928938 -10.024200 93.912373
7913 1 2 0.0 26.148667 -3.279032 91.172715
7914 1 2 0.0 24.834059 -9.720199 92.020819
7915 1 2 0.0 24.841498 -5.078378 92.973520
7916 1 2 0.0 23.696329 -9.359407 94.177864
7917 1 2 0.0 24.958902 -11.852868 94.997688
7918 1 2 0.0 24.662028 -5.095861 90.123592
7919 1 2 0.0 26.167723 -9.099995 94.465421
7920 1 2 0.0 26.707380 -6.247944 92.514007
7921 1 1 0.0 38.284046 -13.072420 95.500405
7922 1 1 0.0 38.979855 -16.973569 97.229390
7923 1 1 0.0 33.877399 -19.807898 98.939057
7924 1 1 0.0 36.322428 -19.870776 97.267251
7925 1 2 0.0 39.135673 -10.851753 95.035654
7926 1 2 0.0 36.592213 -19.210939 95.331220
7927 1 2 0.0 37.396459 -13.567972 96.986003
7928 1 2 0.0 35.225948 -19.247397 97.833208
7929 1 2 0.0 35.785039 -22.238834 98.150888
7930 1 2 0.0 37.568893 -13.125222 93.932904
7931 1 2 0.0 37.607023 -18.694792 97.770194
7932 1 2 0.0 38.944191 -14.810173 95.976637
7933 1 1 0.0 35.392483 -9.281730 95.800774
7934 1 1 0.0 36.489968 -12.897811 97.743897
7935 1 1 0.0 31.542950 -15.574946 99.178080
7936 1 1 0.0 33.941426 -15.659198 97.698985
7937 1 2 0.0 36.115443 -7.203361 95.325161
7938 1 2 0.0 34.039113 -15.070089 95.764516
7939 1 2 0.0 34.588654 -9.731120 97.207879
7940 1 2 0.0 32.806865 -15.064396 98.149141
7941 1 2 0.0 33.626548 -17.891772 98.654216
7942 1 2 0.0 34.561558 -9.373008 94.202441
7943 1 2 0.0 35.218771 -14.530293 98.243383
7944 1 2 0.0 36.222851 -10.888094 96.402215
7945 1 1 0.0 32.172970 -5.778986 95.701718
7946 1 1 0.0 33.645406 -9.100957 97.845453
7947 1 1 0.0 28.874285 -11.550619 99.056518
7948 1 1 0.0 31.227455 -11.681435 97.758347
7949 1 2 0.0 32.766421 -3.866419 95.200177
7950 1 2 0.0 31.174915 -11.165731 95.840158
7951 1 2 0.0 31.439450 -6.171908 97.027017
7952 1 2 0.0 30.056849 -11.105773 98.099143
7953 1 2 0.0 31.126900 -13.765520 98.785615
7954 1 2 0.0 31.249826 -5.897025 94.095775
7955 1 2 0.0 32.480279 -10.620408 98.320274
7956 1 2 0.0 33.163990 -7.252709 96.422488
7957 1 1 0.0 28.620134 -2.568906 95.196693
7958 1 1 0.0 30.451933 -5.578477 97.540769
7959 1 1 0.0 25.863944 -7.739577 98.566319
7960 1 1 0.0 28.184015 -7.935028 97.449252
7961 1 2 0.0 29.082046 -0.847139 94.652431
7962 1 2 0.0 28.003961 -7.494561 95.563140
7963 1 2 0.0 27.938651 -2.898626 96.431389
7964 1 2 0.0 26.972920 -7.373549 97.679916
7965 1 2 0.0 28.294083 -9.854907 98.553793
7966 1 2 0.0 27.627989 -2.702454 93.605851
7967 1 2 0.0 29.396032 -6.961874 98.005939
7968 1 2 0.0 29.768720 -3.903072 96.038792
7969 1 1 0.0 41.057580 -10.359645 99.046019
7970 1 1 0.0 41.790852 -14.384708 100.716320
7971 1 1 0.0 37.079383 -17.604249 102.492980
7972 1 1 0.0 39.305357 -17.466309 100.766123
7973 1 2 0.0 41.809045 -8.032620 98.586337
7974 1 2 0.0 39.478053 -16.702885 98.822994
7975 1 2 0.0 40.305413 -10.973964 100.549453
7976 1 2 0.0 38.306491 -16.909595 101.367511
7977 1 2 0.0 38.816315 -19.942435 101.621904
7978 1 2 0.0 40.312801 -10.378599 97.481909
7979 1 2 0.0 40.532573 -16.226297 101.264380
7980 1 2 0.0 41.700977 -12.126791 99.489549
7981 1 1 0.0 38.323448 -6.652592 99.404155
7982 1 1 0.0 39.489524 -10.376768 101.328114
7983 1 1 0.0 34.871271 -13.468743 102.782863
7984 1 1 0.0 37.092643 -13.322964 101.288017
7985 1 2 0.0 38.950902 -4.470161 98.929457
7986 1 2 0.0 37.095362 -12.615700 99.350727
7987 1 2 0.0 37.639794 -7.238806 100.813566
7988 1 2 0.0 36.032458 -12.811112 101.749914
7989 1 2 0.0 36.837238 -15.658822 102.231529
7990 1 2 0.0 37.455034 -6.701765 97.806454
7991 1 2 0.0 38.322250 -12.133747 101.830567
7992 1 2 0.0 39.156078 -8.275232 99.996421
7993 1 1 0.0 35.198295 -3.288865 99.286049
7994 1 1 0.0 36.766457 -6.700472 101.448873
7995 1 1 0.0 32.257829 -9.586254 102.635434
7996 1 1 0.0 34.477423 -9.462261 101.359775
7997 1 2 0.0 35.703079 -1.276826 98.781327
7998 1 2 0.0 34.333769 -8.816551 99.442856
7999 1 2 0.0 34.567784 -3.834141 100.598273
8000 1 2 0.0 33.357867 -8.984214 101.689396
8001 1 2 0.0 34.444955 -11.642651 102.390678
8002 1 2 0.0 34.230747 -3.357538 97.678019
8003 1 2 0.0 35.692854 -8.345850 101.922569
8004 1 2 0.0 36.209185 -4.765129 100.020566
8005 1 1 0.0 31.675713 -0.274088 98.683897
8006 1 1 0.0 33.628503 -3.350430 101.086576
8007 1 1 0.0 29.230006 -5.962433 102.040929
8008 1 1 0.0 31.463932 -5.881229 100.986132
8009 1 2 0.0 32.057800 1.540019 98.132146
8010 1 2 0.0 31.198562 -5.301414 99.105462
8011 1 2 0.0 31.077249 -0.769838 99.889259
8012 1 2 0.0 30.279111 -5.431347 101.181968
8013 1 2 0.0 31.649143 -7.887660 102.109897
8014 1 2 0.0 30.633067 -0.352153 97.088110
8015 1 2 0.0 32.649750 -4.858705 101.546457
8016 1 2 0.0 32.861623 -1.595359 99.563577
8017 1 1 0.0 43.800288 -7.611761 102.591634
8018 1 1 0.0 44.560980 -11.743875 104.203249
8019 1 1 0.0 40.259665 -15.365835 106.046902
8020 1 1 0.0 42.254273 -15.013405 104.264994
8021 1 2 0.0 44.450881 -5.180194 102.137020
8022 1 2 0.0 42.327710 -14.147234 102.314768
8023 1 2 0.0 43.189446 -8.349314 104.112902
8024 1 2 0.0 41.359912 -14.531793 104.901814
8025 1 2 0.0 41.811764 -17.590684 105.092919
8026 1 2 0.0 43.027257 -7.599521 101.030914
8027 1 2 0.0 43.421340 -13.707202 104.758566
8028 1 2 0.0 44.420108 -9.399078 103.002461
8029 1 1 0.0 41.248228 -4.016411 103.007537
8030 1 1 0.0 42.471553 -7.833436 104.912331
8031 1 1 0.0 38.196565 -11.357691 106.387645
8032 1 1 0.0 40.230310 -10.967435 104.877049
8033 1 2 0.0 41.781159 -1.731467 102.533753
8034 1 2 0.0 40.136520 -10.141459 102.936939
8035 1 2 0.0 40.689732 -4.745016 104.419253
8036 1 2 0.0 39.250836 -10.547187 105.350686
8037 1 2 0.0 40.031338 -13.400240 105.808842
8038 1 2 0.0 40.343288 -4.024769 101.410467
8039 1 2 0.0 41.410615 -9.716408 105.417751
8040 1 2 0.0 42.075934 -5.646626 103.590626
8041 1 1 0.0 38.242076 -0.819765 102.870380
8042 1 1 0.0 39.893320 -4.307378 105.052293
8043 1 1 0.0 35.657019 -7.646956 106.214350
8044 1 1 0.0 37.734306 -7.252935 104.961204
8045 1 2 0.0 38.660868 1.290458 102.362478
8046 1 2 0.0 37.498622 -6.475263 103.045553
8047 1 2 0.0 37.718636 -1.524064 104.169530
8048 1 2 0.0 36.671577 -6.881373 105.279649
8049 1 2 0.0 37.765657 -9.523870 105.995741
8050 1 2 0.0 37.230676 -0.838997 101.260263
8051 1 2 0.0 38.911982 -6.080308 105.524865
8052 1 2 0.0 39.265292 -2.290396 103.618644
8053 1 1 0.0 34.774390 1.971645 102.171101
8054 1 1 0.0 36.834224 -1.159454 104.632383
8055 1 1 0.0 32.630390 -4.240272 105.515539
8056 1 1 0.0 34.771227 -3.866421 104.523011
8057 1 2 0.0 35.081021 3.877068 101.611862
8058 1 2 0.0 34.420255 -3.143904 102.647783
8059 1 2 0.0 34.262083 1.302095 103.347129
8060 1 2 0.0 33.617899 -3.537223 104.684019
8061 1 2 0.0 35.026085 -5.954221 105.666002
8062 1 2 0.0 33.681384 1.950501 100.570369
8063 1 2 0.0 35.931689 -2.794358 105.086976
8064 1 2 0.0 35.989721 0.670920 103.088361
8065 1 1 0.0 -2.797280 -41.466904 63.395198
8066 1 1 0.0 -3.373818 -43.067884 65.769720
8067 1 1 0.0 -11.521724 -40.647223 66.742461
8068 1 1 0.0 -7.749674 -43.068821 65.676213
8069 1 2 0.0 -0.698455 -40.979703 62.874690
8070 1 2 0.0 -6.691865 -43.795040 63.818258
8071 1 2 0.0 -4.691887 -40.463365 64.684614
8072 1 2 0.0 -9.317203 -41.790400 65.852427
8073 1 2 0.0 -9.068114 -43.593694 66.866267
8074 1 2 0.0 -3.258192 -41.896580 61.790399
8075 1 2 0.0 -5.863638 -42.952068 66.230699
8076 1 2 0.0 -2.514547 -42.496708 64.231156
8077 1 1 0.0 -5.368050 -37.562464 63.060126
8078 1 1 0.0 -5.953001 -39.121268 65.214065
8079 1 1 0.0 -13.381898 -36.457380 66.422023
8080 1 1 0.0 -10.081920 -39.071380 65.116186
8081 1 2 0.0 -3.399444 -37.126918 62.574457
8082 1 2 0.0 -9.202644 -39.943742 63.212742
8083 1 2 0.0 -7.027296 -36.411204 64.441877
8084 1 2 0.0 -11.434216 -37.702837 65.437195
8085 1 2 0.0 -11.352638 -39.560859 66.200324
8086 1 2 0.0 -5.866910 -38.080687 61.454849
8087 1 2 0.0 -8.272371 -38.939598 65.680911
8088 1 2 0.0 -5.152750 -38.613714 63.762508
8089 1 1 0.0 -7.512482 -33.422964 63.170626
8090 1 1 0.0 -8.093346 -34.962825 65.104388
8091 1 1 0.0 -14.744370 -32.090709 66.584991
8092 1 1 0.0 -11.927150 -34.870583 65.039184
8093 1 2 0.0 -5.697997 -33.031995 62.704072
8094 1 2 0.0 -11.217791 -35.863141 63.107035
8095 1 2 0.0 -8.932642 -32.142691 64.639745
8096 1 2 0.0 -13.063059 -33.420769 65.502908
8097 1 2 0.0 -13.133533 -35.339738 66.026473
8098 1 2 0.0 -8.031615 -34.010412 61.587639
8099 1 2 0.0 -10.220088 -34.725695 65.591574
8100 1 2 0.0 -7.360095 -34.502295 63.740184
8101 1 1 0.0 -9.223589 -29.044551 63.734000
8102 1 1 0.0 -9.801986 -30.595999 65.433439
8103 1 1 0.0 -15.598027 -27.543260 67.242159
8104 1 1 0.0 -13.290485 -30.468570 65.440129
8105 1 2 0.0 -7.586087 -28.690105 63.272111
8106 1 2 0.0 -12.744229 -31.556438 63.494158
8107 1 2 0.0 -10.395085 -27.651367 65.291373
8108 1 2 0.0 -14.199332 -28.942444 66.053899
8109 1 2 0.0 -14.422594 -30.934741 66.333192
8110 1 2 0.0 -9.743980 -29.680985 62.197551
8111 1 2 0.0 -11.712694 -30.312939 65.956792
8112 1 2 0.0 -9.138002 -30.163201 64.162711
8113 1 1 0.0 0.687663 -39.763986 66.940813
8114 1 1 0.0 0.171428 -41.648162 69.256649
8115 1 1 0.0 -7.796442 -39.533673 70.296383
8116 1 1 0.0 -4.114857 -41.852138 69.175085
8117 1 2 0.0 2.716076 -39.129640 66.425373
8118 1 2 0.0 -3.103737 -42.464425 67.310032
8119 1 2 0.0 -1.142328 -38.855459 68.248063
8120 1 2 0.0 -5.644878 -40.574177 69.386730
8121 1 2 0.0 -5.405489 -42.560478 70.337283
8122 1 2 0.0 0.205106 -40.141076 65.339404
8123 1 2 0.0 -2.258634 -41.667286 69.724885
8124 1 2 0.0 0.986865 -40.906720 67.744068
8125 1 1 0.0 -1.901682 -35.695130 66.663508
8126 1 1 0.0 -2.377212 -37.520288 68.798282
8127 1 1 0.0 -9.661262 -35.164765 70.026806
8128 1 1 0.0 -6.420599 -37.662505 68.705218
8129 1 2 0.0 -0.010115 -35.121345 66.178753
8130 1 2 0.0 -5.594047 -38.411629 66.798953
8131 1 2 0.0 -3.504438 -34.647531 68.047564
8132 1 2 0.0 -7.756751 -36.303300 69.037968
8133 1 2 0.0 -7.640415 -38.328646 69.777637
8134 1 2 0.0 -2.432606 -36.153670 65.058862
8135 1 2 0.0 -4.637011 -37.470505 69.268095
8136 1 2 0.0 -1.643945 -36.848044 67.356714
8137 1 1 0.0 -4.138191 -31.431738 66.754957
8138 1 1 0.0 -4.563850 -33.217676 68.707807
8139 1 1 0.0 -11.107376 -30.647093 70.163908
8140 1 1 0.0 -8.317730 -33.302256 68.640613
8141 1 2 0.0 -2.405734 -30.914152 66.285223
8142 1 2 0.0 -7.666025 -34.165291 66.709733
8143 1 2 0.0 -5.511319 -30.260899 68.211001
8144 1 2 0.0 -9.458599 -31.869054 69.093162
8145 1 2 0.0 -9.452102 -33.938582 69.631536
8146 1 2 0.0 -4.699094 -31.953583 65.169883
8147 1 2 0.0 -6.632354 -33.106364 69.193870
8148 1 2 0.0 -3.918635 -32.600566 67.338262
8149 1 1 0.0 -6.016081 -26.970623 67.221204
8150 1 1 0.0 -6.394368 -28.743165 68.979247
8151 1 1 0.0 -12.125435 -25.977338 70.716769
8152 1 1 0.0 -9.810548 -28.773185 68.977008
8153 1 2 0.0 -4.464186 -26.504092 66.751827
8154 1 2 0.0 -9.325512 -29.728115 67.036479
8155 1 2 0.0 -7.152362 -25.690226 68.749243
8156 1 2 0.0 -10.746728 -27.269967 69.555951
8157 1 2 0.0 -10.850459 -29.393991 69.889297
8158 1 2 0.0 -6.587396 -27.536829 65.679810
8159 1 2 0.0 -8.249568 -28.577006 69.497310
8160 1 2 0.0 -5.838378 -28.164908 67.687496
8161 1 1 0.0 4.153072 -38.025641 70.486427
8162 1 1 0.0 3.692244 -40.177826 72.743579
8163 1 1 0.0 -4.084330 -38.383054 73.850306
8164 1 1 0.0 -0.501536 -40.583976 72.673957
8165 1 2 0.0 6.110971 -37.246942 69.976057
8166 1 2 0.0 0.459735 -41.080520 70.801806
8167 1 2 0.0 2.392029 -37.217337 71.811512
8168 1 2 0.0 -1.989536 -39.315329 72.921033
8169 1 2 0.0 -1.764868 -41.468409 73.808298
8170 1 2 0.0 3.648335 -38.350542 68.888409
8171 1 2 0.0 1.324175 -40.331709 73.219071
8172 1 2 0.0 4.464857 -39.272560 71.256980
8173 1 1 0.0 1.560766 -33.820688 70.266889
8174 1 1 0.0 1.188098 -35.897601 72.382499
8175 1 1 0.0 -5.942464 -33.866978 73.631588
8176 1 1 0.0 -2.767841 -36.233124 72.294249
8177 1 2 0.0 3.375975 -33.110389 69.783049
8178 1 2 0.0 -1.995733 -36.857288 70.385165
8179 1 2 0.0 0.017687 -32.882403 71.653251
8180 1 2 0.0 -4.083804 -34.892423 72.638740
8181 1 2 0.0 -3.938382 -37.069179 73.354950
8182 1 2 0.0 0.998139 -34.220442 68.662875
8183 1 2 0.0 -1.010771 -35.980539 72.855279
8184 1 2 0.0 1.856544 -35.066689 70.950919
8185 1 1 0.0 -0.752204 -29.461724 70.339289
8186 1 1 0.0 -1.030879 -31.479725 72.311227
8187 1 1 0.0 -7.460886 -29.230206 73.742824
8188 1 1 0.0 -4.703941 -31.744395 72.242041
8189 1 2 0.0 0.899687 -28.818176 69.866373
8190 1 2 0.0 -4.110169 -32.476278 70.312430
8191 1 2 0.0 -2.076260 -28.406409 71.782258
8192 1 2 0.0 -5.846192 -30.337285 72.683415
8193 1 2 0.0 -5.769045 -32.541772 73.236599
8194 1 2 0.0 -1.353620 -29.919363 68.752128
8195 1 2 0.0 -3.040665 -31.496082 72.796166
8196 1 2 0.0 -0.470388 -30.711638 70.936339
8197 1 1 0.0 -2.781263 -24.946226 70.708408
8198 1 1 0.0 -2.969322 -26.926435 72.525054
8199 1 1 0.0 -8.632013 -24.470043 74.191379
8200 1 1 0.0 -6.313309 -27.119237 72.513888
8201 1 2 0.0 -1.312730 -24.367198 70.231542
8202 1 2 0.0 -5.888335 -27.939693 70.578800
8203 1 2 0.0 -3.881437 -23.785145 72.207113
8204 1 2 0.0 -7.273711 -25.648723 73.058003
8205 1 2 0.0 -7.264886 -27.889189 73.445402
8206 1 2 0.0 -3.401348 -25.444100 69.162069
8207 1 2 0.0 -4.769415 -26.880045 73.037828
8208 1 2 0.0 -2.516866 -26.207901 71.212281
8209 1 1 0.0 7.600355 -36.254418 74.032042
8210 1 1 0.0 7.190345 -38.660434 76.230508
8211 1 1 0.0 -0.384307 -37.198411 77.404228
8212 1 1 0.0 3.092018 -39.268471 76.172829
8213 1 2 0.0 9.487568 -35.333833 73.526740
8214 1 2 0.0 4.000636 -39.647827 74.293580
8215 1 2 0.0 5.912265 -35.551145 75.374962
8216 1 2 0.0 1.650198 -38.017310 76.455336
8217 1 2 0.0 1.855543 -40.322279 77.279314
8218 1 2 0.0 7.073060 -36.527710 72.437414
8219 1 2 0.0 4.886438 -38.949108 76.713257
8220 1 2 0.0 7.921102 -37.597379 74.769892
8221 1 1 0.0 5.019578 -31.939649 73.870271
8222 1 1 0.0 4.743667 -34.254731 75.966715
8223 1 1 0.0 -2.225351 -32.564446 77.236371
8224 1 1 0.0 0.877043 -34.784884 75.883281
8225 1 2 0.0 6.759046 -31.094416 73.387345
8226 1 2 0.0 1.593166 -35.282599 73.971376
8227 1 2 0.0 3.539131 -31.115921 75.258937
8228 1 2 0.0 -0.415009 -33.471127 76.239513
8229 1 2 0.0 -0.245707 -35.784679 76.932263
8230 1 2 0.0 4.425604 -32.281487 72.266888
8231 1 2 0.0 2.607026 -34.471250 76.442463
8232 1 2 0.0 5.349310 -33.270766 74.545124
8233 1 1 0.0 2.644635 -27.511394 73.923620
8234 1 1 0.0 2.505322 -29.748465 75.914647
8235 1 1 0.0 -3.805680 -27.837850 77.321740
8236 1 1 0.0 -1.086133 -30.196158 75.843470
8237 1 2 0.0 4.217369 -26.742578 73.447524
8238 1 2 0.0 -0.550571 -30.795355 73.915128
8239 1 2 0.0 1.371559 -26.577284 75.353515
8240 1 2 0.0 -2.226482 -28.823846 76.273668
8241 1 2 0.0 -2.084496 -31.148955 76.841662
8242 1 2 0.0 2.003795 -27.905987 72.334372
8243 1 2 0.0 0.554684 -29.894179 76.398461
8244 1 2 0.0 2.984161 -28.834597 74.534417
8245 1 1 0.0 0.478897 -22.967794 74.195612
8246 1 1 0.0 0.471926 -25.143271 76.070861
8247 1 1 0.0 -5.119473 -23.016557 77.665989
8248 1 1 0.0 -2.800158 -25.503398 76.050767
8249 1 2 0.0 1.866266 -22.276075 73.711258
8250 1 2 0.0 -2.434259 -26.187799 74.121122
8251 1 2 0.0 -0.584312 -21.932147 75.664983
8252 1 2 0.0 -3.781935 -24.074558 76.560054
8253 1 2 0.0 -3.666968 -26.417406 77.001506
8254 1 2 0.0 -0.188135 -23.398786 72.644329
8255 1 2 0.0 -1.273497 -25.219163 76.578346
8256 1 2 0.0 0.824974 -24.289234 74.737066
8257 1 1 0.0 11.030480 -34.452077 77.577656
8258 1 1 0.0 10.666911 -37.098427 79.717437
8259 1 1 0.0 3.304384 -35.981871 80.958151
8260 1 1 0.0 6.667005 -37.908502 79.671700
8261 1 2 0.0 12.846781 -33.391830 77.077423
8262 1 2 0.0 7.520423 -38.169499 77.785354
8263 1 2 0.0 9.419122 -33.858356 78.938411
8264 1 2 0.0 5.275286 -36.682531 79.989639
8265 1 2 0.0 5.456992 -39.125431 80.750330
8266 1 2 0.0 10.480370 -34.674480 75.986420
8267 1 2 0.0 8.429293 -37.522088 80.207443
8268 1 2 0.0 11.356748 -35.883344 78.282804
8269 1 1 0.0 8.474948 -30.052366 77.473653
8270 1 1 0.0 8.289998 -32.592726 79.550932
8271 1 1 0.0 1.490180 -31.257464 80.841154
8272 1 1 0.0 4.514531 -33.318932 79.472313
8273 1 2 0.0 10.139249 -29.073676 76.991641
8274 1 2 0.0 5.173259 -33.688876 77.557588
8275 1 2 0.0 7.059930 -29.348157 78.864624
8276 1 2 0.0 3.249890 -32.040051 79.840285
8277 1 2 0.0 3.438187 -34.476692 80.509576
8278 1 2 0.0 7.849981 -30.337142 75.870901
8279 1 2 0.0 6.216848 -32.943708 80.029647
8280 1 2 0.0 8.834760 -31.461046 78.139330
8281 1 1 0.0 6.051746 -25.579696 77.507951
8282 1 1 0.0 6.044585 -28.023550 79.518067
8283 1 1 0.0 -0.142303 -26.468494 80.900656
8284 1 1 0.0 2.535450 -28.656961 79.444898
8285 1 2 0.0 7.546699 -24.686339 77.028674
8286 1 2 0.0 3.012528 -29.122000 77.517826
8287 1 2 0.0 4.831468 -24.772191 78.924771
8288 1 2 0.0 1.400082 -27.327610 79.863921
8289 1 2 0.0 1.601454 -29.759884 80.446725
8290 1 2 0.0 5.372450 -25.912229 75.916616
8291 1 2 0.0 4.153490 -28.300188 80.000757
8292 1 2 0.0 6.444679 -26.968816 78.132495
8293 1 1 0.0 3.763045 -21.032870 77.682816
8294 1 1 0.0 3.928535 -23.391931 79.616669
8295 1 1 0.0 -1.589010 -21.613518 81.140599
8296 1 1 0.0 0.727938 -23.923350 79.587647
8297 1 2 0.0 5.071426 -20.228439 77.190973
8298 1 2 0.0 1.035627 -24.470075 77.663443
8299 1 2 0.0 2.737639 -20.128495 79.122853
8300 1 2 0.0 -0.272555 -22.544577 80.062106
8301 1 2 0.0 -0.057469 -24.976601 80.557611
8302 1 2 0.0 3.050645 -21.398098 76.126588
8303 1 2 0.0 2.237311 -23.592360 80.118864
8304 1 2 0.0 4.186067 -22.406884 78.261850
8305 1 1 0.0 14.444073 -32.619749 81.123270
8306 1 1 0.0 14.122695 -35.493365 83.204367
8307 1 1 0.0 6.982249 -34.734862 84.512073
8308 1 1 0.0 10.224231 -36.505995 83.170572
8309 1 2 0.0 16.189186 -31.421893 80.628106
8310 1 2 0.0 11.020083 -36.647664 81.277128
8311 1 2 0.0 12.913073 -32.139916 82.501860
8312 1 2 0.0 8.886370 -35.312603 83.523942
8313 1 2 0.0 9.040318 -37.880106 84.221345
8314 1 2 0.0 13.870985 -32.792112 79.535425
8315 1 2 0.0 11.953483 -36.052349 83.701629
8316 1 2 0.0 14.772533 -34.131848 81.795716
8317 1 1 0.0 11.927000 -28.159068 81.077035
8318 1 1 0.0 11.827417 -30.912255 83.135149
8319 1 1 0.0 5.204202 -29.946233 84.445936
8320 1 1 0.0 8.144944 -31.836035 83.061345
8321 1 2 0.0 13.516679 -27.048328 80.595937
8322 1 2 0.0 8.744957 -32.077007 81.143799
8323 1 2 0.0 10.580107 -27.579156 82.470311
8324 1 2 0.0 6.911063 -30.599624 83.441058
8325 1 2 0.0 7.113688 -33.146258 84.086889
8326 1 2 0.0 11.271397 -28.387631 79.474914
8327 1 2 0.0 9.819000 -31.398613 83.616831
8328 1 2 0.0 12.313159 -29.638023 81.733535
8329 1 1 0.0 9.468757 -23.665951 81.092282
8330 1 1 0.0 9.586804 -26.304758 83.121486
8331 1 1 0.0 3.528879 -25.121106 84.479572
8332 1 1 0.0 6.160644 -27.126412 83.046327
8333 1 2 0.0 10.887291 -22.648819 80.609825
8334 1 2 0.0 6.578965 -27.455859 81.120523
8335 1 2 0.0 8.303037 -22.990276 82.496028
8336 1 2 0.0 5.033199 -25.847821 83.454175
8337 1 2 0.0 5.288743 -28.374394 84.051788
8338 1 2 0.0 8.751879 -23.937276 79.498861
8339 1 2 0.0 7.755622 -26.713808 83.603052
8340 1 2 0.0 9.910952 -25.113890 81.730573
8341 1 1 0.0 7.070306 -19.139868 81.170021
8342 1 1 0.0 7.399969 -21.671303 83.162476
8343 1 1 0.0 1.958574 -20.258668 84.615209
8344 1 1 0.0 4.270332 -22.377544 83.124527
8345 1 2 0.0 8.301884 -18.222848 80.670689
8346 1 2 0.0 4.520582 -22.784925 81.205764
8347 1 2 0.0 6.083532 -18.372436 82.580722
8348 1 2 0.0 3.253656 -21.056842 83.564158
8349 1 2 0.0 3.563100 -23.565405 84.113716
8350 1 2 0.0 6.313933 -19.440189 79.608847
8351 1 2 0.0 5.762440 -21.998332 83.659382
8352 1 2 0.0 7.565724 -20.559548 81.786635
8353 1 1 0.0 17.841470 -30.758047 84.668885
8354 1 1 0.0 17.558090 -33.846066 86.691296
8355 1 1 0.0 10.649596 -33.458248 88.065996
8356 1 1 0.0 13.764172 -35.062094 86.669444
8357 1 2 0.0 19.515072 -29.424501 84.178789
8358 1 2 0.0 14.500221 -35.083634 84.768902
8359 1 2 0.0 16.394373 -30.396326 86.065309
8360 1 2 0.0 12.483834 -33.908493 87.058245
8361 1 2 0.0 12.606023 -36.587649 87.692361
8362 1 2 0.0 17.245326 -30.881336 83.084430
8363 1 2 0.0 15.459421 -34.540838 87.195815
8364 1 2 0.0 18.168851 -32.343633 85.308629
8365 1 1 0.0 15.375803 -26.259876 84.680416
8366 1 1 0.0 15.356090 -29.213669 86.719366
8367 1 1 0.0 8.916757 -28.630872 88.050719
8368 1 1 0.0 11.768471 -30.336648 86.650377
8369 1 2 0.0 16.891383 -25.018450 84.200233
8370 1 2 0.0 12.308513 -30.447538 84.730011
8371 1 2 0.0 14.099674 -25.808943 86.075997
8372 1 2 0.0 10.568613 -29.150104 87.041830
8373 1 2 0.0 10.781030 -31.793998 87.664202
8374 1 2 0.0 14.689928 -26.433082 83.078927
8375 1 2 0.0 13.413651 -29.836352 87.204015
8376 1 2 0.0 15.784644 -27.801961 85.327740
8377 1 1 0.0 12.895464 -21.769794 84.676613
8378 1 1 0.0 13.131922 -24.591972 86.724906
8379 1 1 0.0 7.207646 -23.795065 88.058488
8380 1 1 0.0 9.789351 -25.604278 86.647755
8381 1 2 0.0 14.238952 -20.629694 84.190975
8382 1 2 0.0 10.148639 -25.796715 84.723221
8383 1 2 0.0 11.786038 -21.231086 86.067285
8384 1 2 0.0 8.672690 -24.384027 87.044428
8385 1 2 0.0 8.977333 -26.992384 87.656851
8386 1 2 0.0 12.141812 -21.980658 83.081105
8387 1 2 0.0 11.361006 -25.134870 87.205348
8388 1 2 0.0 13.382866 -23.269604 85.328651
8389 1 1 0.0 10.400212 -17.287935 84.657225
8390 1 1 0.0 10.885946 -19.980803 86.708284
8391 1 1 0.0 5.522794 -18.950640 88.089820
8392 1 1 0.0 7.826638 -20.865058 86.661406
8393 1 2 0.0 11.557203 -16.258577 84.150404
8394 1 2 0.0 8.020155 -21.131369 84.748086
8395 1 2 0.0 9.452900 -16.663041 86.038592
8396 1 2 0.0 6.796238 -19.610192 87.066209
8397 1 2 0.0 7.194431 -22.182996 87.669821
8398 1 2 0.0 9.601113 -17.523984 83.091106
8399 1 2 0.0 9.301572 -20.436354 87.199900
8400 1 2 0.0 10.963576 -18.746533 85.311420
8401 1 1 0.0 21.222747 -28.867108 88.214499
8402 1 1 0.0 20.973165 -32.156668 90.178225
8403 1 1 0.0 14.306555 -32.152397 91.619919
8404 1 1 0.0 17.287021 -33.577259 90.168316
8405 1 2 0.0 22.824466 -27.399698 87.729473
8406 1 2 0.0 17.961115 -33.478010 88.260676
8407 1 2 0.0 19.863069 -28.627682 89.628758
8408 1 2 0.0 16.067837 -32.470599 90.592548
8409 1 2 0.0 16.154319 -35.248625 91.163377
8410 1 2 0.0 20.603544 -28.942419 86.633435
8411 1 2 0.0 18.947224 -32.987823 90.690001
8412 1 2 0.0 21.545782 -30.518850 88.821541
8413 1 1 0.0 18.821372 -24.354817 88.283798
8414 1 1 0.0 18.876049 -27.497027 90.303582
8415 1 1 0.0 12.627862 -27.311433 91.655501
8416 1 1 0.0 15.385190 -28.820955 90.239409
8417 1 2 0.0 20.263367 -22.984051 87.804529
8418 1 2 0.0 15.864043 -28.800722 88.316222
8419 1 2 0.0 17.618633 -24.037522 89.681684
8420 1 2 0.0 14.222582 -27.691597 90.642603
8421 1 2 0.0 14.440310 -30.420173 91.241516
8422 1 2 0.0 18.105601 -24.473544 86.682940
8423 1 2 0.0 17.000851 -28.257036 90.791199
8424 1 2 0.0 19.249245 -25.952913 88.921946
8425 1 1 0.0 16.331822 -19.891142 88.260945
8426 1 1 0.0 16.679930 -22.885173 90.328326
8427 1 1 0.0 10.893902 -22.490104 91.637405
8428 1 1 0.0 13.421534 -24.090466 90.249184
8429 1 2 0.0 17.601663 -18.628936 87.772126
8430 1 2 0.0 13.721504 -24.144468 88.325919
8431 1 2 0.0 15.280428 -19.494534 89.638542
8432 1 2 0.0 12.318479 -22.936043 90.634681
8433 1 2 0.0 12.667208 -25.613814 91.261914
8434 1 2 0.0 15.542150 -20.042201 86.663349
8435 1 2 0.0 14.969620 -23.563326 90.807643
8436 1 2 0.0 16.860399 -21.435915 88.926728
8437 1 1 0.0 13.752653 -15.476878 88.144429
8438 1 1 0.0 14.386418 -18.320332 90.254091
8439 1 1 0.0 9.103441 -17.688849 91.564430
8440 1 1 0.0 11.396703 -19.385522 90.198286
8441 1 2 0.0 14.837346 -14.335561 87.630120
8442 1 2 0.0 11.534135 -19.508956 88.290407
8443 1 2 0.0 12.845652 -15.000128 89.496462
8444 1 2 0.0 10.354999 -18.204147 90.568261
8445 1 2 0.0 10.836397 -20.829031 91.225925
8446 1 2 0.0 12.911963 -15.649091 86.573366
8447 1 2 0.0 12.854618 -18.906219 90.740419
8448 1 2 0.0 14.379549 -16.967695 88.836205
8449 1 1 0.0 24.587726 -26.946608 91.760113
8450 1 1 0.0 24.367665 -30.424647 93.665154
8451 1 1 0.0 17.953095 -30.817220 95.173841
8452 1 1 0.0 20.792701 -32.051304 93.667187
8453 1 2 0.0 26.117131 -25.347093 91.280156
8454 1 2 0.0 21.402739 -31.830734 91.752450
8455 1 2 0.0 23.319011 -26.833687 93.192208
8456 1 2 0.0 19.638327 -30.998787 94.126851
8457 1 2 0.0 19.685140 -33.862860 94.634392
8458 1 2 0.0 23.945538 -26.975184 90.182440
8459 1 2 0.0 22.416725 -31.392918 94.184187
8460 1 2 0.0 24.903101 -28.657076 92.334453
8461 1 1 0.0 22.263671 -22.443828 91.887180
8462 1 1 0.0 22.387183 -25.762103 93.887799
8463 1 1 0.0 16.337515 -25.987903 95.260284
8464 1 1 0.0 18.995069 -27.288882 93.828441
8465 1 2 0.0 23.632592 -20.945064 91.408825
8466 1 2 0.0 19.411535 -27.136533 91.902433
8467 1 2 0.0 21.136978 -22.264879 93.287371
8468 1 2 0.0 17.872956 -26.224067 94.243375
8469 1 2 0.0 18.091499 -29.024705 94.818829
8470 1 2 0.0 21.518397 -22.508986 90.286954
8471 1 2 0.0 20.580530 -26.660507 94.378383
8472 1 2 0.0 22.706881 -24.090730 92.516151
8473 1 1 0.0 19.777939 -18.030188 91.845276
8474 1 1 0.0 20.230864 -21.184435 93.931746
8475 1 1 0.0 14.587672 -21.206288 95.216321
8476 1 1 0.0 17.057207 -22.585014 93.850613
8477 1 2 0.0 20.975583 -16.646807 91.353277
8478 1 2 0.0 17.297565 -22.499129 91.928617
8479 1 2 0.0 18.786341 -17.780890 93.209798
8480 1 2 0.0 15.970593 -21.503931 94.224935
8481 1 2 0.0 16.358375 -24.238697 94.866977
8482 1 2 0.0 18.952958 -18.122019 90.245594
8483 1 2 0.0 18.581496 -21.999245 94.409939
8484 1 2 0.0 20.343614 -19.612946 92.524806
8485 1 1 0.0 17.127881 -13.707148 91.631633
8486 1 1 0.0 17.901565 -16.690265 93.799898
8487 1 1 0.0 12.700568 -16.473441 95.039040
8488 1 1 0.0 14.980589 -17.939085 93.735165
8489 1 2 0.0 18.142665 -12.454391 91.109836
8490 1 2 0.0 15.062544 -17.917729 91.832728
8491 1 2 0.0 16.262067 -13.384252 92.954332
8492 1 2 0.0 13.930002 -16.838870 94.070313
8493 1 2 0.0 14.489035 -19.503614 94.782030
8494 1 2 0.0 16.246630 -13.815771 90.055625
8495 1 2 0.0 16.421706 -17.408223 94.280937
8496 1 2 0.0 17.813852 -15.223433 92.360989
8497 1 1 0.0 27.935960 -24.995738 95.305728
8498 1 1 0.0 27.740996 -28.648769 97.152084
8499 1 1 0.0 21.589015 -29.452155 98.727764
8500 1 1 0.0 24.280857 -30.483382 97.166059
8501 1 2 0.0 29.392552 -23.265827 94.830839
8502 1 2 0.0 24.824760 -30.141085 95.244224
8503 1 2 0.0 26.761839 -25.013622 96.755657
8504 1 2 0.0 23.195031 -29.492378 97.661154
8505 1 2 0.0 23.198143 -32.429434 98.105408
8506 1 2 0.0 27.270945 -24.978996 93.731445
8507 1 2 0.0 25.867455 -29.755054 97.678373
8508 1 2 0.0 28.240258 -26.757272 95.847365
8509 1 1 0.0 25.702610 -20.526746 95.490562
8510 1 1 0.0 25.889237 -24.008370 97.472016
8511 1 1 0.0 20.045686 -24.660204 98.865067
8512 1 1 0.0 22.597968 -25.740092 97.417473
8513 1 2 0.0 26.998971 -18.901350 95.013121
8514 1 2 0.0 22.950851 -25.454670 95.488645
8515 1 2 0.0 24.654690 -20.490979 96.893058
8516 1 2 0.0 21.519663 -24.747334 97.844148
8517 1 2 0.0 21.734435 -27.607166 98.396142
8518 1 2 0.0 24.928251 -20.539293 93.890967
8519 1 2 0.0 24.152496 -25.046324 97.965567
8520 1 2 0.0 26.157358 -22.215041 96.110356
8521 1 1 0.0 23.234081 -16.187418 95.429607
8522 1 1 0.0 23.784808 -19.489935 97.535165
8523 1 1 0.0 18.289097 -19.944023 98.795237
8524 1 1 0.0 20.696443 -21.088094 97.452041
8525 1 2 0.0 24.361058 -14.683882 94.934427
8526 1 2 0.0 20.876877 -20.860815 95.531314
8527 1 2 0.0 22.304105 -16.090802 96.781055
8528 1 2 0.0 19.629157 -20.088009 97.815188
8529 1 2 0.0 20.050857 -22.867099 98.472040
8530 1 2 0.0 22.374472 -16.220524 93.827838
8531 1 2 0.0 22.196715 -20.442818 98.012234
8532 1 2 0.0 23.832673 -17.800997 96.122884
8533 1 1 0.0 20.526520 -11.979881 95.118837
8534 1 1 0.0 21.431814 -15.091482 97.345706
8535 1 1 0.0 16.314489 -15.305302 98.513650
8536 1 1 0.0 18.578580 -16.526429 97.272045
8537 1 2 0.0 21.473939 -10.616357 94.589551
8538 1 2 0.0 18.605631 -16.358228 95.375050
8539 1 2 0.0 19.702815 -11.816746 96.412201
8540 1 2 0.0 17.521574 -15.515175 97.572364
8541 1 2 0.0 18.152556 -18.207308 98.338135
8542 1 2 0.0 19.605649 -12.024956 93.537884
8543 1 2 0.0 20.003196 -15.943188 97.821455
8544 1 2 0.0 21.267000 -13.514716 95.885774
8545 1 1 0.0 31.266696 -23.013129 98.851342
8546 1 1 0.0 31.092168 -26.826987 100.639013
8547 1 1 0.0 25.213934 -28.056123 102.281686
8548 1 1 0.0 27.750831 -28.871916 100.664931
8549 1 2 0.0 32.649889 -21.154505 98.381522
8550 1 2 0.0 28.226508 -28.407619 98.735998
8551 1 2 0.0 30.190948 -23.166288 100.319106
8552 1 2 0.0 26.737442 -27.950094 101.195457
8553 1 2 0.0 26.692673 -30.946599 101.576424
8554 1 2 0.0 30.579108 -22.952709 97.280450
8555 1 2 0.0 29.298607 -28.072383 101.172559
8556 1 2 0.0 31.556333 -24.817702 99.360277
8557 1 1 0.0 29.138038 -18.603295 99.093943
8558 1 1 0.0 29.381788 -22.234948 101.056232
8559 1 1 0.0 23.752322 -23.328186 102.469849
8560 1 1 0.0 26.193624 -24.173956 101.006505
8561 1 2 0.0 30.362367 -16.852676 98.617417
8562 1 2 0.0 26.481711 -23.754532 99.074856
8563 1 2 0.0 28.171741 -18.715765 100.498744
8564 1 2 0.0 25.162568 -23.261056 101.444920
8565 1 2 0.0 25.368818 -26.166747 101.973455
8566 1 2 0.0 28.335048 -18.564264 97.494980
8567 1 2 0.0 27.716416 -23.413730 101.552751
8568 1 2 0.0 29.600348 -20.325232 99.704562
8569 1 1 0.0 26.700700 -14.363651 99.013938
8570 1 1 0.0 27.341903 -17.801961 101.138585
8571 1 1 0.0 21.998456 -18.704085 102.374153
8572 1 1 0.0 24.339375 -19.600027 101.053470
8573 1 2 0.0 27.758651 -12.741096 98.515578
8574 1 2 0.0 24.459550 -19.229768 99.134012
8575 1 2 0.0 25.834265 -14.425354 100.352312
8576 1 2 0.0 23.294410 -18.688874 101.405441
8577 1 2 0.0 23.744704 -21.499151 102.077103
8578 1 2 0.0 25.807114 -14.338454 97.410082
8579 1 2 0.0 25.815422 -18.894373 101.614530
8580 1 2 0.0 27.327840 -16.000572 99.720962
8581 1 1 0.0 23.949624 -10.296986 98.606041
8582 1 1 0.0 24.977868 -13.525442 100.891513
8583 1 1 0.0 19.945810 -14.186137 101.988260
8584 1 1 0.0 22.191207 -15.148824 100.808924
8585 1 2 0.0 24.832431 -8.823560 98.069267
8586 1 2 0.0 22.163897 -14.831535 98.917371
8587 1 2 0.0 23.169016 -10.299836 99.870071
8588 1 2 0.0 21.130326 -14.234600 101.074416
8589 1 2 0.0 21.827360 -16.941180 101.894240
8590 1 2 0.0 22.989984 -10.278330 97.020143
8591 1 2 0.0 23.599706 -14.512529 101.361973
8592 1 2 0.0 24.739853 -11.843168 99.410559
8593 1 1 0.0 34.578802 -20.996732 102.396956
8594 1 1 0.0 34.419712 -24.956253 104.125942
8595 1 1 0.0 28.827252 -26.627440 105.835609
8596 1 1 0.0 31.201600 -27.214457 104.163803
8597 1 2 0.0 35.887896 -19.011058 101.932205
8598 1 2 0.0 31.606923 -26.628042 102.227772
8599 1 2 0.0 33.605438 -21.289893 103.882555
8600 1 2 0.0 30.264764 -26.369941 104.729760
8601 1 2 0.0 30.167713 -29.411628 105.047440
8602 1 2 0.0 33.869018 -20.894563 100.829456
8603 1 2 0.0 32.708964 -26.342116 104.666745
8604 1 2 0.0 34.849948 -22.835769 102.873189
8605 1 1 0.0 32.569729 -16.673065 102.697325
8606 1 1 0.0 32.864205 -20.440531 104.640449
8607 1 1 0.0 27.457340 -21.991614 106.074632
8608 1 1 0.0 29.781630 -22.589498 104.595537
8609 1 2 0.0 33.722574 -14.798704 102.221713
8610 1 2 0.0 30.003674 -22.035162 102.661068
8611 1 2 0.0 31.688088 -16.939150 104.104431
8612 1 2 0.0 28.801459 -21.764705 105.045693
8613 1 2 0.0 28.994176 -24.702186 105.550768
8614 1 2 0.0 31.738609 -16.583585 101.098993
8615 1 2 0.0 31.271792 -21.761578 105.139935
8616 1 2 0.0 33.035363 -18.420379 103.298767
8617 1 1 0.0 30.178473 -12.560114 102.598270
8618 1 1 0.0 30.902359 -16.120950 104.742005
8619 1 1 0.0 25.716179 -17.487690 105.953069
8620 1 1 0.0 27.986211 -18.121309 104.654898
8621 1 2 0.0 31.169194 -10.819836 102.096728
8622 1 2 0.0 28.045760 -17.606367 102.736710
8623 1 2 0.0 29.377635 -12.786165 103.923568
8624 1 2 0.0 26.966724 -17.307460 104.995694
8625 1 2 0.0 27.439990 -20.135053 105.682166
8626 1 2 0.0 29.251537 -12.476945 100.992326
8627 1 2 0.0 29.437834 -17.354408 105.216825
8628 1 2 0.0 30.829516 -14.212422 103.319040
8629 1 1 0.0 27.398772 -8.661330 102.093245
8630 1 1 0.0 28.540776 -11.994321 104.437320
8631 1 1 0.0 23.595479 -13.118613 105.462870
8632 1 1 0.0 25.819292 -13.808242 104.345804
8633 1 2 0.0 28.220014 -7.079113 101.548982
8634 1 2 0.0 25.738135 -13.339366 102.459692
8635 1 2 0.0 26.662342 -8.836842 103.327941
8636 1 2 0.0 24.757213 -12.999540 104.576468
8637 1 2 0.0 25.514069 -15.706897 105.450344
8638 1 2 0.0 26.401114 -8.578473 100.502403
8639 1 2 0.0 27.212172 -13.118387 104.902491
8640 1 2 0.0 28.233699 -10.211215 102.935344
8641 1 1 0.0 37.870659 -18.943608 105.942571
8642 1 1 0.0 37.721518 -23.032199 107.612871
8643 1 1 0.0 32.428094 -25.163643 109.389531
8644 1 1 0.0 34.631680 -25.507447 107.662674
8645 1 2 0.0 39.104797 -16.832531 105.482889
8646 1 2 0.0 34.964451 -24.798995 105.719546
8647 1 2 0.0 37.004017 -19.381871 107.446004
8648 1 2 0.0 33.775843 -24.749021 108.264063
8649 1 2 0.0 33.621777 -27.820553 108.518455
8650 1 2 0.0 37.139218 -18.802014 104.378461
8651 1 2 0.0 36.096770 -24.560240 108.160931
8652 1 2 0.0 38.119130 -20.807751 106.386101
8653 1 1 0.0 35.997356 -14.735467 106.300707
8654 1 1 0.0 36.335583 -18.623246 108.224666
8655 1 1 0.0 31.160618 -20.650144 109.679414
8656 1 1 0.0 33.361394 -20.985302 108.184569
8657 1 2 0.0 37.079299 -12.738943 105.826009
8658 1 2 0.0 33.516091 -20.295159 106.247279
8659 1 2 0.0 35.203667 -15.161010 107.710118
8660 1 2 0.0 32.436028 -20.257509 108.646465
8661 1 2 0.0 32.609820 -23.211645 109.128081
8662 1 2 0.0 35.138675 -14.596807 104.703006
8663 1 2 0.0 34.817901 -20.088218 108.727119
8664 1 2 0.0 36.461701 -16.499161 106.892972
8665 1 1 0.0 33.668369 -10.778566 106.182601
8666 1 1 0.0 34.466474 -14.447520 108.345425
8667 1 1 0.0 29.442897 -16.296613 109.531985
8668 1 1 0.0 31.637254 -16.652666 108.256327
8669 1 2 0.0 34.593881 -8.922081 105.677879
8670 1 2 0.0 31.635766 -15.991170 106.339407
8671 1 2 0.0 32.935382 -11.175553 107.494825
8672 1 2 0.0 30.646639 -15.945123 108.585948
8673 1 2 0.0 31.136826 -18.775100 109.287229
8674 1 2 0.0 32.708680 -10.637639 104.574571
8675 1 2 0.0 33.064263 -15.823638 108.819121
8676 1 2 0.0 34.338273 -12.437628 106.917118
8677 1 1 0.0 30.876231 -7.077022 105.580449
8678 1 1 0.0 32.122044 -10.501233 107.983128
8679 1 1 0.0 27.264877 -12.106621 108.937480
8680 1 1 0.0 29.464032 -12.507545 107.882683
8681 1 2 0.0 31.639365 -5.387465 105.028698
8682 1 2 0.0 29.329510 -11.884238 106.002014
8683 1 2 0.0 30.185187 -7.432530 106.785811
8684 1 2 0.0 28.403623 -11.813479 108.078519
8685 1 2 0.0 29.213590 -14.506881 109.006449
8686 1 2 0.0 29.841181 -6.929124 103.984662
8687 1 2 0.0 30.841939 -11.763843 108.443009
8688 1 2 0.0 31.750381 -8.622337 106.460128
8689 1 1 0.0 41.139958 -16.849569 109.488185
8690 1 1 0.0 40.994583 -21.048603 111.099801
8691 1 1 0.0 36.015216 -23.661228 112.943454
8692 1 1 0.0 38.038953 -23.745820 111.161546
8693 1 2 0.0 42.298055 -14.614709 109.033572
8694 1 2 0.0 38.296875 -22.915686 109.211320
8695 1 2 0.0 40.384845 -17.438565 111.009454
8696 1 2 0.0 37.269035 -23.083206 111.798366
8697 1 2 0.0 37.052751 -26.167717 111.989471
8698 1 2 0.0 40.387631 -16.671436 107.927466
8699 1 2 0.0 39.459530 -22.721040 111.655117
8700 1 2 0.0 41.361067 -18.728343 109.899013
8701 1 1 0.0 39.420458 -12.789659 109.904089
8702 1 1 0.0 39.794634 -16.780423 111.808882
8703 1 1 0.0 34.861983 -19.303287 113.284197
8704 1 1 0.0 36.932073 -19.359349 111.773600
8705 1 2 0.0 40.432124 -10.672700 109.430305
8706 1 2 0.0 37.018037 -18.532523 109.833491
8707 1 2 0.0 38.718391 -13.381169 111.315804
8708 1 2 0.0 36.065839 -18.738369 112.247238
8709 1 2 0.0 36.214772 -21.692504 112.705394
8710 1 2 0.0 38.534878 -12.603286 108.307019
8711 1 2 0.0 38.353717 -18.391302 112.314303
8712 1 2 0.0 39.878364 -14.559693 110.487178
8713 1 1 0.0 37.171772 -9.021515 109.766932
8714 1 1 0.0 38.034677 -12.782558 111.948844
8715 1 1 0.0 33.179508 -15.133380 113.110902
8716 1 1 0.0 35.292933 -15.195126 111.857756
8717 1 2 0.0 38.034409 -7.050656 109.259030
8718 1 2 0.0 35.229935 -14.384970 109.942105
8719 1 2 0.0 36.509167 -9.596824 111.066082
8720 1 2 0.0 34.334924 -14.603796 112.176201
8721 1 2 0.0 34.835367 -17.419707 112.892292
8722 1 2 0.0 36.179884 -8.822876 108.156815
8723 1 2 0.0 36.695155 -14.303079 112.421416
8724 1 2 0.0 37.854924 -10.677725 110.515195
8725 1 1 0.0 34.385229 -5.549917 109.067653
8726 1 1 0.0 35.723812 -9.050617 111.528935
8727 1 1 0.0 30.955976 -11.155706 112.412091
8728 1 1 0.0 33.127129 -11.250812 111.419563
8729 1 2 0.0 35.094301 -3.754958 108.508414
8730 1 2 0.0 32.939682 -10.469738 109.544335
8731 1 2 0.0 33.740967 -6.093682 110.243681
8732 1 2 0.0 32.071533 -10.681379 111.580571
8733 1 2 0.0 32.927213 -13.344587 112.562554
8734 1 2 0.0 33.313232 -5.335603 107.466921
8735 1 2 0.0 34.490922 -10.453278 111.983527
8736 1 2 0.0 35.292529 -7.081492 109.984913
8737 1 1 0.0 -11.646039 -39.896098 70.291750
8738 1 1 0.0 -12.553262 -41.335710 72.666272
8739 1 1 0.0 -19.990303 -37.220083 73.639012
8740 1 1 0.0 -16.827014 -40.395945 72.572765
8741 1 2 0.0 -9.491551 -39.871473 69.771242
8742 1 2 0.0 -15.950052 -41.332584 70.714810
8743 1 2 0.0 -13.280620 -38.508737 71.581166
8744 1 2 0.0 -18.083073 -38.810441 72.748978
8745 1 2 0.0 -18.227462 -40.625122 73.762819
8746 1 2 0.0 -12.188543 -40.216647 68.686951
8747 1 2 0.0 -14.959974 -40.687364 73.127250
8748 1 2 0.0 -11.591294 -40.962605 71.127708
8749 1 1 0.0 -13.317368 -35.530302 69.956678
8750 1 1 0.0 -14.223739 -36.926915 72.110617
8751 1 1 0.0 -20.906296 -32.728315 73.318575
8752 1 1 0.0 -18.245402 -35.990598 72.012737
8753 1 2 0.0 -11.301156 -35.528131 69.471009
8754 1 2 0.0 -17.574215 -37.031583 70.109294
8755 1 2 0.0 -14.690334 -34.049269 71.338429
8756 1 2 0.0 -19.271886 -34.363347 72.333747
8757 1 2 0.0 -19.591634 -36.195467 73.096876
8758 1 2 0.0 -13.915967 -35.929169 68.351401
8759 1 2 0.0 -16.449830 -36.250897 72.577463
8760 1 2 0.0 -13.333088 -36.603258 70.659060
8761 1 1 0.0 -14.521794 -31.026592 70.067178
8762 1 1 0.0 -15.420102 -32.405584 72.000939
8763 1 1 0.0 -21.298208 -28.170842 73.481543
8764 1 1 0.0 -19.144444 -31.491344 71.935736
8765 1 2 0.0 -12.665684 -31.034825 69.600624
8766 1 2 0.0 -18.665041 -32.613187 70.003587
8767 1 2 0.0 -15.633531 -29.470959 71.536296
8768 1 2 0.0 -19.942129 -29.831239 72.399460
8769 1 2 0.0 -20.423478 -31.690193 72.923025
8770 1 2 0.0 -15.155073 -31.488707 68.484191
8771 1 2 0.0 -17.446146 -31.716811 72.488126
8772 1 2 0.0 -14.604993 -32.113447 70.636735
8773 1 1 0.0 -15.251667 -26.382707 70.630552
8774 1 1 0.0 -16.150057 -27.773544 72.329991
8775 1 1 0.0 -21.154340 -23.546199 74.138710
8776 1 1 0.0 -19.529603 -26.899170 72.336680
8777 1 2 0.0 -13.576253 -26.388562 70.168663
8778 1 2 0.0 -19.229977 -28.079033 70.390709
8779 1 2 0.0 -16.096280 -24.770257 72.187925
8780 1 2 0.0 -20.089129 -25.213349 72.950451
8781 1 2 0.0 -20.735456 -27.111072 73.229744
8782 1 2 0.0 -15.896706 -26.892392 69.094103
8783 1 2 0.0 -17.955244 -27.086356 72.853343
8784 1 2 0.0 -15.408558 -27.493602 71.059263
8785 1 1 0.0 -7.876496 -38.982154 73.837365
8786 1 1 0.0 -8.785703 -40.711303 76.153201
8787 1 1 0.0 -16.112736 -36.933393 77.192935
8788 1 1 0.0 -13.015627 -39.989085 76.071637
8789 1 2 0.0 -5.759140 -38.798687 73.321925
8790 1 2 0.0 -12.159770 -40.804419 74.206584
8791 1 2 0.0 -9.468397 -37.701473 75.144615
8792 1 2 0.0 -14.235153 -38.412093 76.283281
8793 1 2 0.0 -14.428357 -40.403417 77.233834
8794 1 2 0.0 -8.428834 -39.246692 72.235956
8795 1 2 0.0 -11.163064 -40.207589 76.621436
8796 1 2 0.0 -7.829943 -40.162490 74.640620
8797 1 1 0.0 -9.530620 -34.451792 73.560059
8798 1 1 0.0 -10.387387 -36.132055 75.694834
8799 1 1 0.0 -16.994772 -32.265746 76.923358
8800 1 1 0.0 -14.366814 -35.401738 75.601769
8801 1 2 0.0 -7.559929 -34.298054 73.075305
8802 1 2 0.0 -13.720626 -36.311031 73.695505
8803 1 2 0.0 -10.870701 -33.084141 74.944116
8804 1 2 0.0 -15.379539 -33.787077 75.934519
8805 1 2 0.0 -15.701312 -35.790080 76.674189
8806 1 2 0.0 -10.147703 -34.785479 71.955414
8807 1 2 0.0 -12.583651 -35.597645 76.164647
8808 1 2 0.0 -9.526751 -35.633158 74.253265
8809 1 1 0.0 -10.798337 -29.807293 73.651509
8810 1 1 0.0 -11.597968 -31.459973 75.604359
8811 1 1 0.0 -17.435911 -27.542824 77.060459
8812 1 1 0.0 -15.282267 -30.735602 75.537164
8813 1 2 0.0 -8.995118 -29.674235 73.181774
8814 1 2 0.0 -14.831325 -31.718557 73.606284
8815 1 2 0.0 -11.887666 -28.368646 75.107553
8816 1 2 0.0 -16.088367 -29.090654 75.989713
8817 1 2 0.0 -16.526909 -31.113194 76.528088
8818 1 2 0.0 -11.458307 -30.196360 72.066435
8819 1 2 0.0 -13.594183 -30.906596 76.090422
8820 1 2 0.0 -10.835177 -30.995993 74.234813
8821 1 1 0.0 -11.673315 -25.046785 74.117756
8822 1 1 0.0 -12.423802 -26.696566 75.875798
8823 1 1 0.0 -17.426308 -22.763392 77.613321
8824 1 1 0.0 -15.766567 -25.991506 75.873560
8825 1 2 0.0 -10.057412 -24.924773 73.648378
8826 1 2 0.0 -15.498153 -27.028379 73.933031
8827 1 2 0.0 -12.507783 -23.552056 75.645795
8828 1 2 0.0 -16.357712 -24.322182 76.452503
8829 1 2 0.0 -16.915621 -26.374248 76.785849
8830 1 2 0.0 -12.352990 -25.476938 72.576362
8831 1 2 0.0 -14.199910 -26.135478 76.393861
8832 1 2 0.0 -11.756503 -26.251349 74.584048
8833 1 1 0.0 -4.118413 -38.029410 77.382979
8834 1 1 0.0 -5.031124 -40.032214 79.640130
8835 1 1 0.0 -12.240063 -36.607669 80.746857
8836 1 1 0.0 -9.214165 -39.527330 79.570509
8837 1 2 0.0 -2.038892 -37.689808 76.872608
8838 1 2 0.0 -8.382111 -40.218909 77.698358
8839 1 2 0.0 -5.664523 -36.861432 78.708064
8840 1 2 0.0 -10.394656 -37.968467 79.817584
8841 1 2 0.0 -10.638088 -40.119506 80.704850
8842 1 2 0.0 -4.681194 -38.238212 75.784961
8843 1 2 0.0 -7.376909 -39.673435 80.115622
8844 1 2 0.0 -4.081968 -39.314201 78.153532
8845 1 1 0.0 -5.746172 -33.365497 77.163441
8846 1 1 0.0 -6.556602 -35.313741 79.279051
8847 1 1 0.0 -13.083931 -31.797733 80.528140
8848 1 1 0.0 -10.492181 -34.791010 79.190801
8849 1 2 0.0 -3.820709 -33.062022 76.679601
8850 1 2 0.0 -9.872302 -35.566561 77.281717
8851 1 2 0.0 -7.051471 -32.117433 78.549802
8852 1 2 0.0 -11.489167 -33.198761 79.535292
8853 1 2 0.0 -11.815082 -35.355887 80.251502
8854 1 2 0.0 -6.381580 -33.634957 75.559427
8855 1 2 0.0 -8.721892 -34.922049 79.751831
8856 1 2 0.0 -5.725163 -34.645951 77.847471
8857 1 1 0.0 -7.068018 -28.611223 77.235840
8858 1 1 0.0 -7.773988 -30.522138 79.207779
8859 1 1 0.0 -13.570085 -26.942950 80.639376
8860 1 1 0.0 -11.418072 -29.991020 79.138593
8861 1 2 0.0 -5.316403 -28.337830 76.762925
8862 1 2 0.0 -10.995516 -30.833436 77.208982
8863 1 2 0.0 -8.134256 -27.295949 78.678810
8864 1 2 0.0 -12.231131 -28.371258 79.579967
8865 1 2 0.0 -12.629687 -30.540789 80.133151
8866 1 2 0.0 -7.753752 -28.928877 75.648680
8867 1 2 0.0 -9.740303 -30.106068 79.692717
8868 1 2 0.0 -7.061485 -29.892498 77.832891
8869 1 1 0.0 -8.078940 -23.765108 77.604960
8870 1 1 0.0 -8.688289 -25.658594 79.421606
8871 1 1 0.0 -13.690537 -22.042319 81.087931
8872 1 1 0.0 -11.995542 -25.128029 79.410440
8873 1 2 0.0 -6.520266 -23.515308 77.128094
8874 1 2 0.0 -11.756877 -26.020660 77.475352
8875 1 2 0.0 -8.903795 -22.394668 79.103665
8876 1 2 0.0 -12.617373 -23.485437 79.954554
8877 1 2 0.0 -13.090388 -25.675419 80.341953
8878 1 2 0.0 -8.791555 -24.118042 76.058621
8879 1 2 0.0 -10.436323 -25.226322 79.934380
8880 1 2 0.0 -8.091947 -25.054123 78.108833
8881 1 1 0.0 -0.370966 -37.040662 80.928593
8882 1 1 0.0 -1.288611 -39.302286 83.127060
8883 1 1 0.0 -8.371881 -36.246118 84.300780
8884 1 1 0.0 -5.421832 -39.015088 83.069380
8885 1 2 0.0 1.670025 -36.547294 80.423292
8886 1 2 0.0 -4.616008 -39.580902 81.190132
8887 1 2 0.0 -1.868405 -35.990942 82.271513
8888 1 2 0.0 -6.560980 -37.483230 83.351887
8889 1 2 0.0 -6.855937 -39.778453 84.175866
8890 1 2 0.0 -0.944682 -37.194211 79.333966
8891 1 2 0.0 -3.600711 -39.088939 83.609809
8892 1 2 0.0 -0.346414 -38.421176 81.666444
8893 1 1 0.0 -1.963857 -32.271979 80.766823
8894 1 1 0.0 -2.730992 -34.473623 82.863267
8895 1 1 0.0 -9.173717 -31.324722 84.132923
8896 1 1 0.0 -6.621183 -34.160171 82.779833
8897 1 2 0.0 -0.083357 -31.820441 80.283897
8898 1 2 0.0 -6.028797 -34.800195 80.867928
8899 1 2 0.0 -3.232615 -31.149256 82.155489
8900 1 2 0.0 -7.600609 -32.599376 83.136065
8901 1 2 0.0 -7.932611 -34.895233 83.828815
8902 1 2 0.0 -2.617430 -32.478138 79.163440
8903 1 2 0.0 -4.864225 -34.225765 83.339015
8904 1 2 0.0 -1.927986 -33.642857 81.441676
8905 1 1 0.0 -3.331332 -27.436711 80.820171
8906 1 1 0.0 -3.948292 -29.591533 82.811199
8907 1 1 0.0 -9.701021 -26.368908 84.218292
8908 1 1 0.0 -7.552021 -29.256702 82.740021
8909 1 2 0.0 -1.630095 -27.023961 80.344075
8910 1 2 0.0 -7.157790 -29.957020 80.811680
8911 1 2 0.0 -4.373838 -26.250766 82.250067
8912 1 2 0.0 -8.370703 -27.671333 83.170220
8913 1 2 0.0 -8.731866 -29.972605 83.738214
8914 1 2 0.0 -4.042015 -27.684317 79.230924
8915 1 2 0.0 -5.884649 -29.314510 83.295013
8916 1 2 0.0 -3.284194 -28.801967 81.430969
8917 1 1 0.0 -4.469696 -22.533768 81.092164
8918 1 1 0.0 -4.944168 -24.656886 82.967413
8919 1 1 0.0 -9.947662 -21.377907 84.562541
8920 1 1 0.0 -8.217169 -24.305192 82.947319
8921 1 2 0.0 -2.966064 -22.156465 80.607809
8922 1 2 0.0 -8.006950 -25.052249 81.017673
8923 1 2 0.0 -5.285414 -21.293776 82.561534
8924 1 2 0.0 -8.868834 -22.698704 83.456606
8925 1 2 0.0 -9.260198 -25.011492 83.898058
8926 1 2 0.0 -5.213784 -22.811292 79.540880
8927 1 2 0.0 -6.665098 -24.355789 83.474898
8928 1 2 0.0 -4.415781 -23.898711 81.633617
8929 1 1 0.0 3.366415 -36.017833 84.474208
8930 1 1 0.0 2.442460 -38.524157 86.613989
8931 1 1 0.0 -4.507909 -35.850980 87.854703
8932 1 1 0.0 -1.638073 -38.455432 86.568252
8933 1 2 0.0 5.368174 -35.372826 83.973975
8934 1 2 0.0 -0.860714 -38.893786 84.681906
8935 1 2 0.0 1.920362 -35.091599 85.834962
8936 1 2 0.0 -2.733707 -36.958944 86.886190
8937 1 2 0.0 -3.081400 -39.383792 87.646881
8938 1 2 0.0 2.781356 -36.116780 82.882971
8939 1 2 0.0 0.166081 -38.456891 87.103995
8940 1 2 0.0 3.377375 -37.485777 85.179356
8941 1 1 0.0 1.816438 -31.171622 84.370205
8942 1 1 0.0 1.089710 -33.612831 86.447484
8943 1 1 0.0 -5.264090 -30.847027 87.737705
8944 1 1 0.0 -2.753601 -33.510445 86.368865
8945 1 2 0.0 3.652218 -30.573589 83.888193
8946 1 2 0.0 -2.189801 -34.013346 84.454139
8947 1 2 0.0 0.585886 -30.179689 85.761176
8948 1 2 0.0 -3.713755 -31.989602 86.736837
8949 1 2 0.0 -4.053666 -34.409755 87.406128
8950 1 2 0.0 1.144864 -31.315390 82.767453
8951 1 2 0.0 -1.010422 -33.509941 86.926199
8952 1 2 0.0 1.865014 -32.624716 85.035881
8953 1 1 0.0 0.411381 -26.282604 84.404503
8954 1 1 0.0 -0.120969 -28.667783 86.414618
8955 1 1 0.0 -5.828920 -25.819084 87.797208
8956 1 1 0.0 -3.684227 -28.532024 86.341450
8957 1 2 0.0 2.063428 -25.731504 83.925226
8958 1 2 0.0 -3.318272 -29.088748 84.414377
8959 1 2 0.0 -0.606778 -25.231654 85.821323
8960 1 2 0.0 -4.507280 -26.989681 86.760473
8961 1 2 0.0 -4.833482 -29.408380 87.343277
8962 1 2 0.0 -0.323518 -26.461333 82.813168
8963 1 2 0.0 -2.027320 -28.531423 86.897308
8964 1 2 0.0 0.496507 -27.723715 85.029047
8965 1 1 0.0 -0.846379 -21.350076 84.579368
8966 1 1 0.0 -1.191885 -23.689560 86.513220
8967 1 1 0.0 -6.198127 -20.766616 88.037151
8968 1 1 0.0 -4.431894 -23.520521 86.484199
8969 1 2 0.0 0.604342 -20.845716 84.087525
8970 1 2 0.0 -4.248929 -24.120607 84.559995
8971 1 2 0.0 -1.653397 -20.246414 86.019404
8972 1 2 0.0 -5.112601 -21.958906 86.958658
8973 1 2 0.0 -5.425356 -24.380307 87.454163
8974 1 2 0.0 -1.620636 -21.553621 83.023140
8975 1 2 0.0 -2.886656 -23.521740 87.015416
8976 1 2 0.0 -0.728618 -22.782904 85.158402
8977 1 1 0.0 7.094096 -34.962166 88.019822
8978 1 1 0.0 6.162490 -37.699512 90.100918
8979 1 1 0.0 -0.647961 -35.423758 91.408625
8980 1 1 0.0 2.137484 -37.850413 90.067124
8981 1 2 0.0 9.055914 -34.167463 87.524658
8982 1 2 0.0 2.884275 -38.159854 88.173680
8983 1 2 0.0 5.702041 -34.164432 89.398412
8984 1 2 0.0 1.087446 -36.397321 90.420494
8985 1 2 0.0 0.685858 -38.937891 91.117897
8986 1 2 0.0 6.497355 -35.007302 86.431976
8987 1 2 0.0 3.923828 -37.779111 90.598181
8988 1 2 0.0 7.089821 -36.509522 88.692268
8989 1 1 0.0 5.594786 -30.064677 87.973586
8990 1 1 0.0 4.905677 -32.732089 90.031701
8991 1 1 0.0 -1.355024 -30.364856 91.342488
8992 1 1 0.0 1.110713 -32.842648 89.957897
8993 1 2 0.0 7.386075 -29.321639 87.492489
8994 1 2 0.0 1.644897 -33.206972 88.040351
8995 1 2 0.0 4.404046 -29.208781 89.366862
8996 1 2 0.0 0.171471 -31.369896 90.337610
8997 1 2 0.0 -0.178091 -33.900549 90.983441
8998 1 2 0.0 4.905377 -30.146961 86.371466
8999 1 2 0.0 2.839663 -32.775325 90.513383
9000 1 2 0.0 5.653985 -31.592068 88.630087
9001 1 1 0.0 4.159902 -25.148157 87.988834
9002 1 1 0.0 3.707925 -27.750647 90.018038
9003 1 1 0.0 -1.953919 -25.292393 91.376124
9004 1 1 0.0 0.185235 -27.816568 89.942879
9005 1 2 0.0 5.763926 -24.459748 87.506377
9006 1 2 0.0 0.522954 -28.228239 88.017075
9007 1 2 0.0 3.166686 -24.237683 89.392580
9008 1 2 0.0 -0.640992 -26.325502 90.350726
9009 1 2 0.0 -0.934561 -28.847940 90.948340
9010 1 2 0.0 3.401459 -25.259032 86.395412
9011 1 2 0.0 1.831621 -27.756484 90.499604
9012 1 2 0.0 4.280495 -26.657303 88.627125
9013 1 1 0.0 2.790501 -20.212295 88.066572
9014 1 1 0.0 2.568272 -22.755414 90.059028
9015 1 1 0.0 -2.442231 -20.206067 91.511761
9016 1 1 0.0 -0.640017 -22.772364 90.021078
9017 1 2 0.0 4.190417 -19.581467 87.567241
9018 1 2 0.0 -0.483192 -23.224018 88.102316
9019 1 2 0.0 1.991772 -19.250679 89.477274
9020 1 2 0.0 -1.349011 -21.263985 90.460709
9021 1 2 0.0 -1.586069 -23.780420 91.010268
9022 1 2 0.0 1.987250 -20.342997 86.505399
9023 1 2 0.0 0.898726 -22.722778 90.555934
9024 1 2 0.0 2.969146 -21.705284 88.683187
9025 1 1 0.0 10.812275 -33.874329 91.565436
9026 1 1 0.0 9.871688 -36.829234 93.587848
9027 1 1 0.0 3.208080 -34.965361 94.962548
9028 1 1 0.0 5.905060 -37.201252 93.565996
9029 1 2 0.0 12.733423 -32.931736 91.075341
9030 1 2 0.0 6.619269 -37.380517 91.665454
9031 1 2 0.0 9.476770 -33.209982 92.961861
9032 1 2 0.0 4.902645 -35.799386 93.954797
9033 1 2 0.0 4.446039 -38.442173 94.588913
9034 1 2 0.0 10.203565 -33.866582 89.980982
9035 1 2 0.0 7.672729 -37.056611 94.092367
9036 1 2 0.0 10.791148 -35.493222 92.205180
9037 1 1 0.0 9.371228 -28.951277 91.576968
9038 1 1 0.0 8.716998 -31.831775 93.615917
9039 1 1 0.0 2.553497 -29.878337 94.947271
9040 1 1 0.0 4.971848 -32.157267 93.546929
9041 1 2 0.0 11.118245 -28.064681 91.096785
9042 1 2 0.0 5.475426 -32.381658 91.626562
9043 1 2 0.0 8.221871 -28.236557 92.972549
9044 1 2 0.0 4.055114 -30.740531 93.938382
9045 1 2 0.0 3.694206 -33.368275 94.560754
9046 1 2 0.0 8.664155 -28.972992 89.975479
9047 1 2 0.0 6.686114 -32.022333 94.100567
9048 1 2 0.0 9.439008 -30.545198 92.224292
9049 1 1 0.0 7.914113 -24.032972 91.573165
9050 1 1 0.0 7.538358 -26.840001 93.621458
9051 1 1 0.0 1.923900 -24.788181 94.955040
9052 1 1 0.0 4.056319 -27.110086 93.544307
9053 1 2 0.0 9.471278 -23.208337 91.087527
9054 1 2 0.0 4.365839 -27.375259 91.619773
9055 1 2 0.0 6.946431 -23.268365 92.963837
9056 1 2 0.0 3.228082 -25.678314 93.940980
9057 1 2 0.0 2.964883 -28.291179 94.553403
9058 1 2 0.0 7.132752 -24.076893 89.977657
9059 1 2 0.0 5.692138 -26.989511 94.101899
9060 1 2 0.0 8.067705 -25.602495 92.225202
9061 1 1 0.0 6.440665 -19.119491 91.553776
9062 1 1 0.0 6.336156 -21.853819 93.604835
9063 1 1 0.0 1.319847 -19.694822 94.986371
9064 1 1 0.0 3.158285 -22.059740 93.557958
9065 1 2 0.0 7.791889 -18.362917 91.046956
9066 1 2 0.0 3.290028 -22.361425 91.644637
9067 1 2 0.0 5.649835 -18.305562 92.935144
9068 1 2 0.0 2.421734 -20.612707 93.962761
9069 1 2 0.0 2.257541 -23.210960 94.566372
9070 1 2 0.0 5.609506 -19.178238 89.987658
9071 1 2 0.0 4.690895 -21.958127 94.096452
9072 1 2 0.0 6.677304 -20.665094 92.207972
9073 1 1 0.0 14.520996 -32.754474 95.111051
9074 1 1 0.0 13.570091 -35.913474 97.074777
9075 1 1 0.0 7.060261 -34.476179 98.516470
9076 1 1 0.0 9.664742 -36.508440 97.064867
9077 1 2 0.0 16.400717 -31.665694 94.626024
9078 1 2 0.0 10.344412 -36.556422 95.157228
9079 1 2 0.0 13.244576 -32.228356 96.525310
9080 1 2 0.0 8.711961 -35.165564 97.489100
9081 1 2 0.0 8.199227 -37.897233 98.059929
9082 1 2 0.0 13.900080 -32.694914 93.529987
9083 1 2 0.0 11.412842 -36.289679 97.586553
9084 1 2 0.0 14.481403 -34.437043 95.718092
9085 1 1 0.0 13.145773 -27.831454 95.180350
9086 1 1 0.0 12.523689 -30.911954 97.200134
9087 1 1 0.0 6.461479 -29.387524 98.552053
9088 1 1 0.0 8.829839 -31.454498 97.135961
9089 1 2 0.0 14.848730 -26.802721 94.701081
9090 1 2 0.0 9.301846 -31.537677 95.212774
9091 1 2 0.0 12.039363 -27.263024 96.578236
9092 1 2 0.0 7.937191 -30.101618 97.539155
9093 1 2 0.0 7.563266 -32.813207 98.138067
9094 1 2 0.0 12.421213 -27.793536 93.579492
9095 1 2 0.0 10.528953 -31.251082 97.687751
9096 1 2 0.0 13.220099 -29.484167 95.818497
9097 1 1 0.0 11.673986 -22.936957 95.157496
9098 1 1 0.0 11.370327 -25.935823 97.224878
9099 1 1 0.0 5.804502 -24.306165 98.533956
9100 1 1 0.0 7.929008 -26.412478 97.145736
9101 1 2 0.0 13.185475 -21.977239 94.668678
9102 1 2 0.0 8.210356 -26.529702 95.222471
9103 1 2 0.0 10.732431 -22.323603 96.535093
9104 1 2 0.0 7.099909 -25.047920 97.531233
9105 1 2 0.0 6.864843 -27.738053 98.158466
9106 1 2 0.0 10.870302 -22.914728 93.559901
9107 1 2 0.0 9.554220 -26.230455 97.704195
9108 1 2 0.0 11.858124 -24.559243 95.823280
9109 1 1 0.0 10.104053 -18.071451 95.040980
9110 1 1 0.0 10.111741 -20.984667 97.150643
9111 1 1 0.0 5.088028 -19.232265 98.460981
9112 1 1 0.0 6.962940 -21.382253 97.094837
9113 1 2 0.0 11.408735 -17.189995 94.526672
9114 1 2 0.0 7.070625 -21.532345 95.186959
9115 1 2 0.0 9.320744 -17.410869 96.393014
9116 1 2 0.0 6.199551 -20.004563 97.464813
9117 1 2 0.0 6.105422 -22.671565 98.122477
9118 1 2 0.0 9.245996 -18.058914 93.469917
9119 1 2 0.0 8.489806 -21.227565 97.636970
9120 1 2 0.0 10.395810 -19.662178 95.732756
9121 1 1 0.0 18.220154 -31.602246 98.656665
9122 1 1 0.0 17.257563 -34.951664 100.561706
9123 1 1 0.0 10.908570 -33.956115 102.070393
9124 1 1 0.0 13.416496 -35.771778 100.563739
9125 1 2 0.0 20.057651 -30.368903 98.176708
9126 1 2 0.0 14.059688 -35.687506 98.649002
9127 1 2 0.0 17.005376 -31.219229 100.088759
9128 1 2 0.0 12.515371 -34.495712 101.023403
9129 1 2 0.0 11.945399 -37.302889 101.530944
9130 1 2 0.0 17.586838 -31.492102 97.078992
9131 1 2 0.0 15.144085 -35.477902 101.080739
9132 1 2 0.0 18.160456 -33.340520 99.231004
9133 1 1 0.0 16.918399 -26.705135 98.783732
9134 1 1 0.0 16.325692 -29.972382 100.784351
9135 1 1 0.0 10.368922 -28.892403 102.156836
9136 1 1 0.0 12.684672 -30.734262 100.724993
9137 1 2 0.0 18.577505 -25.535689 98.305377
9138 1 2 0.0 13.124152 -30.675002 98.798985
9139 1 2 0.0 15.856516 -26.288164 100.183923
9140 1 2 0.0 11.817697 -29.453121 101.139927
9141 1 2 0.0 11.429076 -32.235261 101.715380
9142 1 2 0.0 16.176542 -26.608557 97.183505
9143 1 2 0.0 14.368148 -30.461404 101.274935
9144 1 2 0.0 16.997212 -28.408810 99.412703
9145 1 1 0.0 15.439584 -21.860324 98.741828
9146 1 1 0.0 15.203850 -25.038193 100.828297
9147 1 1 0.0 9.687895 -23.846415 102.112873
9148 1 1 0.0 11.803309 -25.723785 100.747164
9149 1 2 0.0 16.906614 -20.766744 98.249828
9150 1 2 0.0 12.056510 -25.691577 98.825168
9151 1 2 0.0 14.524761 -21.403691 100.106350
9152 1 2 0.0 10.974500 -24.434387 101.121486
9153 1 2 0.0 10.765322 -27.188576 101.763529
9154 1 2 0.0 14.614150 -21.772662 97.142145
9155 1 2 0.0 13.417883 -25.479388 101.306491
9156 1 2 0.0 15.651788 -23.527682 99.421358
9157 1 1 0.0 13.780809 -17.068671 98.528184
9158 1 1 0.0 13.895123 -20.148363 100.696450
9159 1 1 0.0 8.862333 -18.818548 101.935592
9160 1 1 0.0 10.773978 -20.740063 100.631717
9161 1 2 0.0 15.041174 -16.063351 98.006387
9162 1 2 0.0 10.858608 -20.736824 98.729280
9163 1 2 0.0 13.004650 -16.567200 99.850883
9164 1 2 0.0 9.984467 -19.439725 100.966864
9165 1 2 0.0 9.957589 -22.162344 101.678582
9166 1 2 0.0 12.896810 -16.985311 96.952177
9167 1 2 0.0 12.295522 -20.531410 101.177488
9168 1 2 0.0 14.124786 -18.696969 99.257541
9169 1 1 0.0 21.909488 -30.416757 102.202279
9170 1 1 0.0 20.933788 -33.942471 104.048635
9171 1 1 0.0 14.752933 -33.404580 105.624315
9172 1 1 0.0 17.160158 -34.990364 104.062611
9173 1 2 0.0 23.703906 -29.040415 101.727391
9174 1 2 0.0 17.764928 -34.772993 102.140776
9175 1 2 0.0 20.758973 -30.181822 103.652208
9176 1 2 0.0 16.312755 -33.789109 104.557706
9177 1 2 0.0 15.684413 -36.658167 105.001960
9178 1 2 0.0 21.263620 -30.257448 100.627997
9179 1 2 0.0 18.866231 -34.620135 104.574925
9180 1 2 0.0 21.827994 -32.202523 102.743917
9181 1 1 0.0 20.689053 -25.572143 102.387113
9182 1 1 0.0 20.122872 -29.012488 104.368567
9183 1 1 0.0 14.275814 -28.392892 105.761618
9184 1 1 0.0 16.536281 -29.996198 104.314025
9185 1 2 0.0 22.304519 -24.263427 101.909673
9186 1 2 0.0 16.942271 -29.793309 102.385197
9187 1 2 0.0 19.673322 -25.311941 103.789609
9188 1 2 0.0 15.696600 -28.794846 104.740700
9189 1 2 0.0 15.291572 -31.633987 105.292693
9190 1 2 0.0 19.930102 -25.417933 100.787518
9191 1 2 0.0 18.203604 -29.652828 104.862119
9192 1 2 0.0 20.770236 -27.318725 103.006908
9193 1 1 0.0 19.211064 -20.803606 102.326159
9194 1 1 0.0 19.038973 -24.147301 104.431717
9195 1 1 0.0 13.574133 -23.409358 105.691789
9196 1 1 0.0 15.679254 -25.044190 104.348593
9197 1 2 0.0 20.634910 -19.577488 101.830979
9198 1 2 0.0 15.904328 -24.861012 102.427866
9199 1 2 0.0 18.323601 -20.509331 103.677607
9200 1 2 0.0 14.851910 -23.838051 104.711740
9201 1 2 0.0 14.666329 -26.642821 105.368592
9202 1 2 0.0 18.364436 -20.651147 100.724390
9203 1 2 0.0 17.283166 -24.736514 104.908786
9204 1 2 0.0 19.448790 -22.508140 103.019436
9205 1 1 0.0 17.471301 -16.112393 102.015388
9206 1 1 0.0 17.686527 -19.345858 104.242257
9207 1 1 0.0 12.642878 -18.454606 105.410202
9208 1 1 0.0 14.591529 -20.133895 104.168596
9209 1 2 0.0 18.689687 -14.984414 101.486103
9210 1 2 0.0 14.654106 -19.975442 102.271601
9211 1 2 0.0 16.701923 -15.776000 103.308753
9212 1 2 0.0 13.776625 -18.919059 104.468916
9213 1 2 0.0 13.814127 -21.683894 105.234687
9214 1 2 0.0 16.562270 -15.958454 100.434436
9215 1 2 0.0 16.108218 -19.870541 104.718006
9216 1 2 0.0 17.864525 -17.770526 102.782326
9217 1 1 0.0 25.588555 -29.196510 105.747894
9218 1 1 0.0 24.598241 -32.883684 107.535565
9219 1 1 0.0 18.593209 -32.820437 109.178238
9220 1 1 0.0 20.895423 -34.162515 107.561483
9221 1 2 0.0 27.338959 -27.678685 105.278074
9222 1 2 0.0 21.459790 -33.811330 105.632550
9223 1 2 0.0 24.505033 -29.114834 107.215658
9224 1 2 0.0 20.103891 -33.044395 108.092009
9225 1 2 0.0 19.416009 -35.961220 108.472976
9226 1 2 0.0 24.930031 -28.989691 104.177002
9227 1 2 0.0 22.578890 -33.714400 108.069111
9228 1 2 0.0 25.483491 -31.021157 106.256829
9229 1 1 0.0 24.457648 -24.432177 105.990495
9230 1 1 0.0 23.915002 -28.031324 107.952784
9231 1 1 0.0 18.182135 -27.888833 109.366401
9232 1 1 0.0 20.384546 -29.239637 107.903056
9233 1 2 0.0 26.029685 -22.985682 105.513969
9234 1 2 0.0 20.756061 -28.891950 105.971408
9235 1 2 0.0 23.489765 -24.334293 107.395296
9236 1 2 0.0 19.573842 -28.126434 108.341472
9237 1 2 0.0 19.150632 -31.008530 108.870007
9238 1 2 0.0 23.681823 -24.221439 104.391531
9239 1 2 0.0 22.035162 -28.824540 108.449303
9240 1 2 0.0 24.538984 -26.213239 106.601113
9241 1 1 0.0 22.988692 -19.767698 105.910490
9242 1 1 0.0 22.875769 -23.263463 108.035137
9243 1 1 0.0 17.463319 -22.995811 109.270705
9244 1 1 0.0 19.556907 -24.374035 107.950022
9245 1 2 0.0 24.370710 -18.410506 105.412129
9246 1 2 0.0 19.753867 -24.038267 106.030564
9247 1 2 0.0 22.129250 -19.641701 107.248863
9248 1 2 0.0 18.732244 -23.259548 108.301993
9249 1 2 0.0 18.567884 -26.100922 108.973655
9250 1 2 0.0 22.121415 -19.550996 104.306634
9251 1 2 0.0 21.150140 -24.002186 108.511082
9252 1 2 0.0 23.249281 -21.501165 106.617514
9253 1 1 0.0 21.176147 -15.204710 105.502592
9254 1 1 0.0 21.486329 -18.578728 107.788065
9255 1 1 0.0 16.429888 -18.142233 108.884812
9256 1 1 0.0 18.415839 -19.565106 107.705476
9257 1 2 0.0 22.355058 -13.955509 104.965819
9258 1 2 0.0 18.457376 -19.249364 105.813923
9259 1 2 0.0 20.413177 -15.039685 106.766623
9260 1 2 0.0 17.576293 -18.444198 107.970968
9261 1 2 0.0 17.675196 -21.237342 108.790791
9262 1 2 0.0 20.242954 -14.980195 103.916695
9263 1 2 0.0 19.928193 -19.246474 108.258525
9264 1 2 0.0 21.615518 -16.884619 106.307110
9265 1 1 0.0 29.256692 -27.939261 109.293508
9266 1 1 0.0 28.250141 -31.772010 111.022494
9267 1 1 0.0 22.429174 -32.201912 112.732160
9268 1 1 0.0 24.621820 -33.285619 111.060354
9269 1 2 0.0 30.962042 -26.281427 108.828757
9270 1 2 0.0 25.143729 -32.800048 109.124324
9271 1 2 0.0 28.243063 -28.016323 110.779107
9272 1 2 0.0 23.888433 -32.259456 111.626312
9273 1 2 0.0 23.139778 -35.209167 111.943991
9274 1 2 0.0 28.585466 -27.686898 107.726007
9275 1 2 0.0 26.281470 -32.757712 111.563297
9276 1 2 0.0 29.126160 -29.793591 109.769741
9277 1 1 0.0 28.224050 -23.284787 109.593877
9278 1 1 0.0 27.701748 -27.027476 111.537001
9279 1 1 0.0 22.087856 -27.379979 112.971183
9280 1 1 0.0 24.229278 -28.463538 111.492088
9281 1 2 0.0 29.752875 -21.702075 109.118265
9282 1 2 0.0 24.565296 -27.969895 109.557619
9283 1 2 0.0 27.305821 -23.355124 111.000983
9284 1 2 0.0 23.449328 -27.447321 111.942245
9285 1 2 0.0 23.006068 -30.357554 112.447320
9286 1 2 0.0 27.431597 -23.018733 107.995544
9287 1 2 0.0 25.862579 -27.975315 112.036487
9288 1 2 0.0 28.303177 -25.091347 110.195319
9289 1 1 0.0 26.772864 -18.753945 109.494821
9290 1 1 0.0 26.714351 -22.387145 111.638557
9291 1 1 0.0 21.355613 -22.607056 112.849621
9292 1 1 0.0 23.436363 -23.713851 111.551450
9293 1 2 0.0 28.114531 -17.267330 108.993280
9294 1 2 0.0 23.605218 -23.223750 109.633261
9295 1 2 0.0 25.942155 -18.802554 110.820120
9296 1 2 0.0 22.615665 -22.699870 111.892246
9297 1 2 0.0 22.470017 -25.563094 112.578718
9298 1 2 0.0 25.885478 -18.473457 107.888878
9299 1 2 0.0 25.018909 -23.276936 112.113377
9300 1 2 0.0 27.053489 -20.507578 110.215592
9301 1 1 0.0 24.896274 -14.348759 108.989797
9302 1 1 0.0 25.295084 -17.849323 111.333872
9303 1 1 0.0 20.223716 -17.884238 112.359422
9304 1 1 0.0 22.247288 -19.035797 111.242356
9305 1 2 0.0 26.038446 -12.980076 108.445534
9306 1 2 0.0 22.268822 -18.560438 109.356244
9307 1 2 0.0 24.139331 -14.361857 110.224493
9308 1 2 0.0 21.383886 -18.017687 111.473019
9309 1 2 0.0 21.541046 -20.824449 112.346896
9310 1 2 0.0 23.939753 -14.053372 107.398954
9311 1 2 0.0 23.755901 -18.661499 111.799043
9312 1 2 0.0 25.378501 -16.041893 109.831895
9313 1 1 0.0 32.912949 -26.641789 112.839123
9314 1 1 0.0 31.888368 -30.602730 114.509423
9315 1 1 0.0 26.260504 -31.546413 116.286083
9316 1 1 0.0 28.338663 -32.355884 114.559226
9317 1 2 0.0 34.572052 -24.845371 112.379440
9318 1 2 0.0 28.815951 -31.735532 112.616098
9319 1 2 0.0 31.972354 -26.883504 114.342556
9320 1 2 0.0 27.665875 -31.431211 115.160615
9321 1 2 0.0 26.855122 -34.397812 115.415007
9322 1 2 0.0 32.229046 -26.346267 111.275012
9323 1 2 0.0 29.973122 -31.745774 115.057483
9324 1 2 0.0 32.754875 -28.515763 113.282653
9325 1 1 0.0 31.988068 -22.129327 113.197259
9326 1 1 0.0 31.482630 -25.998921 115.121217
9327 1 1 0.0 25.992930 -26.865967 116.575966
9328 1 1 0.0 28.070203 -27.666391 115.081120
9329 1 2 0.0 33.473910 -20.412067 112.722561
9330 1 2 0.0 28.369644 -27.025638 113.143831
9331 1 2 0.0 31.121456 -22.374302 114.606669
9332 1 2 0.0 27.322926 -26.756687 115.543017
9333 1 2 0.0 26.857603 -29.679117 116.024633
9334 1 2 0.0 31.179270 -21.809318 111.599558
9335 1 2 0.0 29.685504 -27.103386 115.623671
9336 1 2 0.0 32.062415 -23.951607 113.789524
9337 1 1 0.0 30.564148 -17.764273 113.079153
9338 1 1 0.0 30.554877 -21.519019 115.241976
9339 1 1 0.0 25.251249 -22.244959 116.428537
9340 1 1 0.0 27.317761 -23.064410 115.152879
9341 1 2 0.0 31.867111 -16.150150 112.574431
9342 1 2 0.0 27.458511 -22.418060 113.235959
9343 1 2 0.0 29.762957 -17.994408 114.391377
9344 1 2 0.0 26.502407 -22.160457 115.482499
9345 1 2 0.0 26.372773 -25.029645 116.183781
9346 1 2 0.0 29.657191 -17.420337 111.471122
9347 1 2 0.0 28.889625 -22.561529 115.715673
9348 1 2 0.0 30.861741 -19.528556 113.813669
9349 1 1 0.0 28.633012 -13.549042 112.477001
9350 1 1 0.0 29.113594 -17.161010 114.879680
9351 1 1 0.0 24.024874 -17.684718 115.834032
9352 1 1 0.0 26.086427 -18.549021 114.779235
9353 1 2 0.0 29.741509 -12.063038 111.925250
9354 1 2 0.0 26.089042 -17.911369 112.898565
9355 1 2 0.0 27.881700 -13.747684 113.682363
9356 1 2 0.0 25.200013 -17.643226 114.975071
9357 1 2 0.0 25.412042 -20.447776 115.903001
9358 1 2 0.0 27.653954 -13.182097 110.881214
9359 1 2 0.0 27.591993 -18.118916 115.339561
9360 1 2 0.0 29.154527 -15.246145 113.356680
9361 1 1 0.0 36.555969 -25.299510 116.384737
9362 1 1 0.0 35.511325 -29.369122 117.996353
9363 1 1 0.0 30.086735 -30.850249 119.840006
9364 1 1 0.0 32.044975 -31.367906 118.058098
9365 1 2 0.0 38.167420 -23.365857 115.930124
9366 1 2 0.0 32.475320 -30.612626 116.107872
9367 1 2 0.0 35.691894 -25.712410 117.906005
9368 1 2 0.0 31.435498 -30.555274 118.694918
9369 1 2 0.0 30.561193 -33.521177 118.886023
9370 1 2 0.0 35.859525 -24.963814 114.824018
9371 1 2 0.0 33.652636 -30.672467 118.551669
9372 1 2 0.0 36.368028 -27.181891 116.795565
9373 1 1 0.0 35.749431 -20.964877 116.800641
9374 1 1 0.0 35.256963 -24.942776 118.705434
9375 1 1 0.0 29.897293 -26.346282 120.180749
9376 1 1 0.0 31.906934 -26.846043 118.670152
9377 1 2 0.0 37.192528 -19.114890 116.326857
9378 1 2 0.0 32.168631 -26.057026 116.730042
9379 1 2 0.0 34.936620 -21.391635 118.212356
9380 1 2 0.0 31.194445 -26.053366 119.143790
9381 1 2 0.0 30.704844 -28.970451 119.601946
9382 1 2 0.0 34.924620 -20.592488 115.203571
9383 1 2 0.0 33.503442 -26.206239 119.210855
9384 1 2 0.0 35.816126 -22.791965 117.383729
9385 1 1 0.0 34.363358 -16.801429 116.663484
9386 1 1 0.0 34.397575 -20.660041 118.845396
9387 1 1 0.0 29.150561 -21.912183 120.007453
9388 1 1 0.0 31.201301 -22.426809 118.754307
9389 1 2 0.0 35.629503 -15.062089 116.155581
9390 1 2 0.0 31.313936 -21.622053 116.838657
9391 1 2 0.0 33.592569 -17.220847 117.962633
9392 1 2 0.0 30.392808 -21.643361 119.072753
9393 1 2 0.0 30.276213 -24.501018 119.788844
9394 1 2 0.0 33.437360 -16.394208 115.053367
9395 1 2 0.0 32.762504 -21.857055 119.317968
9396 1 2 0.0 34.674502 -18.565775 117.411747
9397 1 1 0.0 32.388254 -12.811971 115.964205
9398 1 1 0.0 32.942994 -16.518582 118.425487
9399 1 1 0.0 27.834096 -17.549512 119.308642
9400 1 1 0.0 29.934043 -18.109128 118.316115
9401 1 2 0.0 33.466611 -11.211407 115.404965
9402 1 2 0.0 29.918886 -17.306020 116.440887
9403 1 2 0.0 31.642160 -13.204526 117.140232
9404 1 2 0.0 29.025538 -17.326086 118.477123
9405 1 2 0.0 29.288701 -20.110976 119.459106
9406 1 2 0.0 31.387390 -12.372220 114.363473
9407 1 2 0.0 31.437398 -17.623415 118.880079
9408 1 2 0.0 32.945098 -14.502781 116.881465
9409 1 1 0.0 -19.950243 -36.459795 77.188302
9410 1 1 0.0 -21.145730 -37.670724 79.562824
9411 1 1 0.0 -27.524159 -32.052574 80.535564
9412 1 1 0.0 -25.117542 -35.834199 79.469317
9413 1 2 0.0 -17.840832 -36.898897 76.667794
9414 1 2 0.0 -24.462432 -36.937461 77.611362
9415 1 2 0.0 -21.248367 -34.753483 78.477717
9416 1 2 0.0 -26.003398 -34.015748 79.645530
9417 1 2 0.0 -26.534514 -35.756963 80.659370
9418 1 2 0.0 -20.548972 -36.656227 75.583502
9419 1 2 0.0 -23.356799 -36.520164 80.023802
9420 1 2 0.0 -20.126045 -37.513137 78.024260
9421 1 1 0.0 -20.643980 -31.836783 76.853229
9422 1 1 0.0 -21.829391 -33.005901 79.007169
9423 1 1 0.0 -27.453138 -27.468909 80.215127
9424 1 1 0.0 -25.555749 -31.226935 78.909289
9425 1 2 0.0 -18.674440 -32.268088 76.367560
9426 1 2 0.0 -25.124035 -32.387869 77.005845
9427 1 2 0.0 -21.666468 -30.095229 78.234981
9428 1 2 0.0 -26.208424 -29.417066 79.230299
9429 1 2 0.0 -26.914548 -31.137614 79.993427
9430 1 2 0.0 -21.314329 -32.097644 75.247952
9431 1 2 0.0 -23.858113 -31.867144 79.474015
9432 1 2 0.0 -20.889987 -32.881275 77.555612
9433 1 1 0.0 -20.852082 -27.179451 76.963729
9434 1 1 0.0 -22.025831 -28.333093 78.897491
9435 1 1 0.0 -26.856167 -22.933738 80.378095
9436 1 1 0.0 -25.466566 -26.639604 78.832287
9437 1 2 0.0 -19.041137 -27.586500 76.497175
9438 1 2 0.0 -25.239534 -27.838277 76.900138
9439 1 2 0.0 -21.603412 -25.421197 78.432848
9440 1 2 0.0 -25.888728 -24.846833 79.296012
9441 1 2 0.0 -26.758443 -26.558850 79.819577
9442 1 2 0.0 -21.569897 -27.494626 75.380743
9443 1 2 0.0 -23.856442 -27.224884 79.384678
9444 1 2 0.0 -21.166979 -28.223011 77.533287
9445 1 1 0.0 -20.566594 -22.487236 77.527104
9446 1 1 0.0 -21.742968 -23.652429 79.226543
9447 1 1 0.0 -25.721500 -18.448144 81.035262
9448 1 1 0.0 -24.855538 -22.071995 79.233232
9449 1 2 0.0 -18.931609 -22.853119 77.065214
9450 1 2 0.0 -24.816553 -23.288685 77.287261
9451 1 2 0.0 -21.044831 -20.730918 79.084477
9452 1 2 0.0 -25.039581 -20.305306 79.847003
9453 1 2 0.0 -26.078752 -22.019720 80.126296
9454 1 2 0.0 -21.306119 -22.846341 75.990654
9455 1 2 0.0 -23.358226 -22.593246 79.749895
9456 1 2 0.0 -20.958626 -23.538433 77.955815
9457 1 1 0.0 -16.072359 -36.377559 80.733916
9458 1 1 0.0 -17.332025 -37.870829 83.049753
9459 1 1 0.0 -23.675617 -32.606149 84.089487
9460 1 1 0.0 -21.307800 -36.256187 82.968188
9461 1 2 0.0 -13.965066 -36.653550 80.218477
9462 1 2 0.0 -20.647225 -37.236443 81.103136
9463 1 2 0.0 -17.351733 -34.784608 82.041167
9464 1 2 0.0 -22.159807 -34.453903 83.179833
9465 1 2 0.0 -22.776570 -36.357137 84.130386
9466 1 2 0.0 -16.668651 -36.517176 79.132508
9467 1 2 0.0 -19.545520 -36.867829 83.517988
9468 1 2 0.0 -16.280632 -37.540307 81.537172
9469 1 1 0.0 -16.713916 -31.597527 80.456611
9470 1 1 0.0 -17.911859 -33.054326 82.591386
9471 1 1 0.0 -23.533626 -27.858017 83.819909
9472 1 1 0.0 -21.641253 -31.485624 82.498321
9473 1 2 0.0 -14.756250 -31.871023 79.971856
9474 1 2 0.0 -21.205644 -32.512571 80.592057
9475 1 2 0.0 -17.728663 -29.973773 81.840667
9476 1 2 0.0 -22.283197 -29.691007 82.831071
9477 1 2 0.0 -23.028034 -31.578009 83.570740
9478 1 2 0.0 -17.388305 -31.790757 78.851966
9479 1 2 0.0 -19.941894 -32.060279 83.061199
9480 1 2 0.0 -16.964096 -32.752105 81.149817
9481 1 1 0.0 -16.953564 -26.789092 80.548061
9482 1 1 0.0 -18.089778 -28.231236 82.500911
9483 1 1 0.0 -22.949162 -23.150682 83.957011
9484 1 1 0.0 -21.532222 -26.731785 82.433716
9485 1 2 0.0 -15.163900 -27.046783 80.078326
9486 1 2 0.0 -21.303129 -27.788698 80.502836
9487 1 2 0.0 -17.708159 -25.149906 82.004105
9488 1 2 0.0 -21.965861 -24.952007 82.886265
9489 1 2 0.0 -22.828936 -26.832988 83.424640
9490 1 2 0.0 -17.681743 -27.027189 78.962987
9491 1 2 0.0 -19.920363 -27.261669 82.986973
9492 1 2 0.0 -17.245079 -27.942081 81.131365
9493 1 1 0.0 -16.784718 -21.951787 81.014308
9494 1 1 0.0 -17.872313 -23.401665 82.772350
9495 1 1 0.0 -21.912347 -18.485055 84.509872
9496 1 1 0.0 -20.985359 -21.994493 82.770112
9497 1 2 0.0 -15.180364 -22.180000 80.544930
9498 1 2 0.0 -20.946117 -23.064826 80.829582
9499 1 2 0.0 -17.278354 -20.312618 82.542347
9500 1 2 0.0 -21.203828 -20.237118 83.349054
9501 1 2 0.0 -22.189827 -22.121274 83.682400
9502 1 2 0.0 -17.540973 -22.225773 79.472914
9503 1 2 0.0 -19.486279 -22.471885 83.290413
9504 1 2 0.0 -17.124907 -23.110307 81.480600
9505 1 1 0.0 -12.197326 -36.254966 84.279531
9506 1 1 0.0 -13.519241 -38.014740 86.536682
9507 1 1 0.0 -19.823463 -33.120550 87.643409
9508 1 1 0.0 -17.495951 -36.622430 86.467060
9509 1 2 0.0 -10.093418 -36.370340 83.769160
9510 1 2 0.0 -16.832018 -37.476707 84.594910
9511 1 2 0.0 -13.456207 -34.781928 85.604616
9512 1 2 0.0 -18.313732 -34.846241 86.714136
9513 1 2 0.0 -19.013883 -36.894660 87.601402
9514 1 2 0.0 -12.791835 -36.337905 82.681513
9515 1 2 0.0 -15.733056 -37.160075 87.012174
9516 1 2 0.0 -12.437925 -37.517555 85.050084
9517 1 1 0.0 -12.784425 -31.350173 84.059993
9518 1 1 0.0 -13.994722 -33.078650 86.175602
9519 1 1 0.0 -19.613609 -28.241661 87.424692
9520 1 1 0.0 -17.725918 -31.722107 86.087353
9521 1 2 0.0 -10.838740 -31.467711 83.576152
9522 1 2 0.0 -17.287252 -32.612782 84.178268
9523 1 2 0.0 -13.790911 -29.850687 85.446354
9524 1 2 0.0 -18.357309 -29.952761 86.431844
9525 1 2 0.0 -19.139323 -31.989392 87.148054
9526 1 2 0.0 -13.462904 -31.476740 82.455979
9527 1 2 0.0 -16.025187 -32.230642 86.648383
9528 1 2 0.0 -13.039167 -32.605207 84.744022
9529 1 1 0.0 -13.053339 -26.422894 84.132392
9530 1 1 0.0 -14.153594 -28.137370 86.104330
9531 1 1 0.0 -19.044762 -23.395872 87.535927
9532 1 1 0.0 -17.598307 -26.835299 86.035145
9533 1 2 0.0 -11.283904 -26.532437 83.659477
9534 1 2 0.0 -17.366724 -27.748856 84.105534
9535 1 2 0.0 -13.811904 -24.909160 85.575362
9536 1 2 0.0 -18.044156 -25.078622 86.476518
9537 1 2 0.0 -18.899779 -27.111753 87.029703
9538 1 2 0.0 -13.791327 -26.585708 82.545231
9539 1 2 0.0 -15.984495 -27.308328 86.589269
9540 1 2 0.0 -13.322395 -27.675617 84.729443
9541 1 1 0.0 -12.998855 -21.472760 84.501512
9542 1 1 0.0 -14.001000 -23.190985 86.318157
9543 1 1 0.0 -18.108907 -18.583921 87.984482
9544 1 1 0.0 -17.116876 -21.961863 86.306991
9545 1 2 0.0 -11.422922 -21.563869 84.024646
9546 1 2 0.0 -17.075681 -22.884931 84.371904
9547 1 2 0.0 -13.509820 -19.957040 86.000216
9548 1 2 0.0 -17.371060 -20.223998 86.851106
9549 1 2 0.0 -18.303799 -22.261096 87.238505
9550 1 2 0.0 -13.770680 -21.664251 82.955173
9551 1 2 0.0 -15.615241 -22.393043 86.830931
9552 1 2 0.0 -13.288657 -22.728842 85.005384
9553 1 1 0.0 -8.324940 -36.094925 87.825145
9554 1 1 0.0 -9.707314 -38.106407 90.023611
9555 1 1 0.0 -15.967995 -33.598997 91.197332
9556 1 1 0.0 -13.682164 -36.937403 89.965932
9557 1 2 0.0 -6.225608 -36.051845 87.319843
9558 1 2 0.0 -13.016812 -37.663217 88.086684
9559 1 2 0.0 -9.561712 -34.747841 89.168065
9560 1 2 0.0 -14.465375 -35.196477 90.248439
9561 1 2 0.0 -15.246840 -37.374631 91.072417
9562 1 2 0.0 -8.918252 -36.121553 86.230518
9563 1 2 0.0 -11.919495 -37.401015 90.506360
9564 1 2 0.0 -8.597732 -37.448442 88.562996
9565 1 1 0.0 -8.855465 -31.095306 87.663375
9566 1 1 0.0 -10.077953 -33.080566 89.759819
9567 1 1 0.0 -15.693130 -28.620290 91.029474
9568 1 1 0.0 -13.809811 -31.938167 89.676385
9569 1 2 0.0 -6.921863 -31.058577 87.180448
9570 1 2 0.0 -13.368860 -32.690573 87.764480
9571 1 2 0.0 -9.853208 -29.726087 89.052041
9572 1 2 0.0 -14.430813 -30.203314 90.032616
9573 1 2 0.0 -15.248594 -32.374125 90.725367
9574 1 2 0.0 -9.538075 -31.156147 86.059992
9575 1 2 0.0 -12.108029 -32.379921 90.235567
9576 1 2 0.0 -9.115130 -32.441846 88.338228
9577 1 1 0.0 -9.151529 -26.079118 87.716723
9578 1 1 0.0 -10.217288 -28.050933 89.707750
9579 1 1 0.0 -15.142752 -23.666985 91.114843
9580 1 1 0.0 -13.664785 -26.949235 89.636573
9581 1 2 0.0 -7.401337 -26.041734 87.240627
9582 1 2 0.0 -13.430319 -27.717928 87.708231
9583 1 2 0.0 -9.914719 -24.696792 89.146618
9584 1 2 0.0 -14.123520 -25.224939 90.066772
9585 1 2 0.0 -14.970944 -27.394769 90.634766
9586 1 2 0.0 -9.898824 -26.168159 86.127476
9587 1 2 0.0 -12.048822 -27.364127 90.191565
9588 1 2 0.0 -9.398982 -27.422588 88.327521
9589 1 1 0.0 -9.209292 -21.046089 87.988716
9590 1 1 0.0 -10.129077 -23.017572 89.863965
9591 1 1 0.0 -14.310709 -18.739651 91.459093
9592 1 1 0.0 -13.249954 -21.970502 89.843871
9593 1 2 0.0 -7.659705 -21.000843 87.504361
9594 1 2 0.0 -13.205245 -22.745284 87.914225
9595 1 2 0.0 -9.739376 -19.659731 89.458086
9596 1 2 0.0 -13.541036 -20.261484 90.353158
9597 1 2 0.0 -14.420431 -22.436068 90.794610
9598 1 2 0.0 -9.995642 -21.157167 86.437432
9599 1 2 0.0 -11.745046 -22.353565 90.371449
9600 1 2 0.0 -9.450059 -22.390710 88.530169
9601 1 1 0.0 -4.455059 -35.899436 91.370759
9602 1 1 0.0 -5.896199 -38.148540 93.510541
9603 1 1 0.0 -12.109418 -34.043737 94.751254
9604 1 1 0.0 -9.866557 -37.204228 93.464804
9605 1 2 0.0 -2.361443 -35.699828 90.870526
9606 1 2 0.0 -9.201605 -37.799443 91.578458
9607 1 2 0.0 -5.668192 -34.683998 92.731514
9608 1 2 0.0 -10.614875 -35.507198 93.782742
9609 1 2 0.0 -11.475710 -37.800611 94.543433
9610 1 2 0.0 -5.047710 -35.870299 89.779523
9611 1 2 0.0 -8.104897 -37.593493 94.000546
9612 1 2 0.0 -4.759920 -37.335416 92.075908
9613 1 1 0.0 -4.927007 -30.833327 91.266756
9614 1 1 0.0 -6.161532 -33.061237 93.344036
9615 1 1 0.0 -11.772217 -28.994217 94.634257
9616 1 1 0.0 -9.892979 -32.135046 93.265417
9617 1 2 0.0 -3.005587 -30.643914 90.784744
9618 1 2 0.0 -9.450469 -32.747391 91.350691
9619 1 2 0.0 -5.915552 -29.600053 92.657727
9620 1 2 0.0 -10.503748 -30.443356 93.633389
9621 1 2 0.0 -11.355973 -32.733856 94.302680
9622 1 2 0.0 -5.613786 -30.829366 89.664005
9623 1 2 0.0 -8.190446 -32.509287 93.822751
9624 1 2 0.0 -5.191939 -32.262892 91.932433
9625 1 1 0.0 -5.248219 -25.756566 91.301054
9626 1 1 0.0 -6.280866 -27.971541 93.311170
9627 1 1 0.0 -11.242983 -23.962403 94.693760
9628 1 1 0.0 -9.731633 -27.072961 93.238002
9629 1 2 0.0 -3.516326 -25.573491 90.821778
9630 1 2 0.0 -9.493914 -27.695339 91.310929
9631 1 2 0.0 -6.016652 -24.511312 92.717875
9632 1 2 0.0 -10.203886 -25.389746 93.657025
9633 1 2 0.0 -11.042411 -27.681773 94.239829
9634 1 2 0.0 -6.004359 -25.773135 89.709720
9635 1 2 0.0 -8.113335 -27.428560 93.793860
9636 1 2 0.0 -5.474880 -27.182285 91.925598
9637 1 1 0.0 -5.416226 -20.668977 91.475920
9638 1 1 0.0 -6.256575 -22.879491 93.409772
9639 1 1 0.0 -10.517427 -18.948690 94.933703
9640 1 1 0.0 -9.384495 -22.017898 93.380750
9641 1 2 0.0 -3.891000 -20.488271 90.984077
9642 1 2 0.0 -9.334809 -22.643287 91.456546
9643 1 2 0.0 -5.967122 -19.417632 92.915956
9644 1 2 0.0 -9.713587 -20.346461 93.855209
9645 1 2 0.0 -10.539560 -22.644018 94.350715
9646 1 2 0.0 -6.216138 -20.701320 89.919691
9647 1 2 0.0 -7.875646 -22.351269 93.911968
9648 1 2 0.0 -5.609235 -22.093621 92.054954
9649 1 1 0.0 -0.587592 -35.669791 94.916374
9650 1 1 0.0 -2.085867 -38.142871 96.997470
9651 1 1 0.0 -8.247873 -34.456278 98.305177
9652 1 1 0.0 -6.049209 -37.424987 96.963676
9653 1 2 0.0 1.499197 -35.315400 94.421210
9654 1 2 0.0 -5.386398 -37.887732 95.070232
9655 1 2 0.0 -1.775613 -34.591457 96.294963
9656 1 2 0.0 -6.762326 -35.780140 97.317045
9657 1 2 0.0 -7.700673 -38.174984 98.014449
9658 1 2 0.0 -1.180085 -35.585590 93.328528
9659 1 2 0.0 -4.289301 -37.739363 97.494732
9660 1 2 0.0 -0.924403 -37.180052 95.588820
9661 1 1 0.0 -0.999034 -30.564495 94.870138
9662 1 1 0.0 -2.245446 -33.021406 96.928252
9663 1 1 0.0 -7.850891 -29.363653 98.239040
9664 1 1 0.0 -5.975453 -32.313576 96.854449
9665 1 2 0.0 0.910107 -30.223904 94.389040
9666 1 2 0.0 -5.532077 -32.784215 94.936903
9667 1 2 0.0 -1.977942 -29.472636 96.263414
9668 1 2 0.0 -6.576138 -30.673347 97.234161
9669 1 2 0.0 -7.461544 -33.069689 97.879993
9670 1 2 0.0 -1.690013 -30.496653 93.268018
9671 1 2 0.0 -4.272453 -32.619500 97.409935
9672 1 2 0.0 -1.269563 -32.068902 95.526638
9673 1 1 0.0 -1.343464 -25.454463 94.885386
9674 1 1 0.0 -2.344334 -27.898946 96.914590
9675 1 1 0.0 -7.345355 -24.281036 98.272676
9676 1 1 0.0 -5.798836 -27.206052 96.839430
9677 1 2 0.0 0.371046 -25.126966 94.402928
9678 1 2 0.0 -5.557509 -27.680698 94.913627
9679 1 2 0.0 -2.117734 -24.351764 96.289132
9680 1 2 0.0 -6.285210 -25.572232 97.247278
9681 1 2 0.0 -7.114166 -27.972588 97.844892
9682 1 2 0.0 -2.108011 -25.399702 93.291964
9683 1 2 0.0 -4.178025 -27.501297 97.396156
9684 1 2 0.0 -1.550112 -26.954250 95.523676
9685 1 1 0.0 -1.619786 -20.339618 94.963124
9686 1 1 0.0 -2.383514 -22.775508 96.955580
9687 1 1 0.0 -6.728840 -19.208653 98.408313
9688 1 1 0.0 -5.520439 -22.102374 96.917630
9689 1 2 0.0 -0.116990 -20.024479 94.463792
9690 1 2 0.0 -5.464372 -22.577181 94.998868
9691 1 2 0.0 -2.193122 -19.228780 96.373826
9692 1 2 0.0 -5.888600 -20.476847 97.357261
9693 1 2 0.0 -6.661075 -22.883489 97.906819
9694 1 2 0.0 -2.432353 -20.294589 93.401951
9695 1 2 0.0 -4.007011 -22.384732 97.452486
9696 1 2 0.0 -1.766265 -21.836106 95.579738
9697 1 1 0.0 3.277511 -35.406686 98.461988
9698 1 1 0.0 1.723697 -38.090308 100.484399
9699 1 1 0.0 -4.383442 -34.837532 101.859099
9700 1 1 0.0 -2.230167 -37.600921 100.462547
9701 1 2 0.0 5.356373 -34.899120 97.971893
9702 1 2 0.0 -1.571192 -37.929529 98.562006
9703 1 2 0.0 2.116044 -34.470777 99.858413
9704 1 2 0.0 -2.907786 -36.016340 100.851348
9705 1 2 0.0 -3.921838 -38.499183 101.485465
9706 1 2 0.0 2.684697 -35.268265 96.877533
9707 1 2 0.0 -0.472731 -37.839658 100.988918
9708 1 2 0.0 2.908863 -36.983188 99.101732
9709 1 1 0.0 2.928465 -30.288950 98.473520
9710 1 1 0.0 1.670309 -32.961463 100.512469
9711 1 1 0.0 -3.929162 -29.728724 101.843822
9712 1 1 0.0 -2.057253 -32.474249 100.443481
9713 1 2 0.0 4.825230 -29.798638 97.993336
9714 1 2 0.0 -1.613686 -32.801648 98.523114
9715 1 2 0.0 1.959623 -29.343862 99.869101
9716 1 2 0.0 -2.647998 -30.893564 100.834934
9717 1 2 0.0 -3.565355 -33.382288 101.457306
9718 1 2 0.0 2.233255 -30.158157 96.872031
9719 1 2 0.0 -0.354059 -32.710985 100.997119
9720 1 2 0.0 2.652014 -31.860176 99.120844
9721 1 1 0.0 2.562707 -25.172395 98.469717
9722 1 1 0.0 1.592309 -27.833021 100.518010
9723 1 1 0.0 -3.449806 -24.622228 101.851592
9724 1 1 0.0 -1.866383 -27.348255 100.440859
9725 1 2 0.0 4.260739 -24.701784 97.984079
9726 1 2 0.0 -1.621104 -27.673767 98.516325
9727 1 2 0.0 1.782017 -24.217641 99.860388
9728 1 2 0.0 -2.367467 -25.771912 100.837531
9729 1 2 0.0 -3.186202 -28.267109 101.449955
9730 1 2 0.0 1.790172 -25.047319 96.874208
9731 1 2 0.0 -0.242888 -27.582153 100.998451
9732 1 2 0.0 2.375307 -26.738241 99.121754
9733 1 1 0.0 2.179961 -20.057040 98.450328
9734 1 1 0.0 1.490095 -22.704976 100.501387
9735 1 1 0.0 -2.944815 -19.518096 101.882923
9736 1 1 0.0 -1.657746 -22.222934 100.454510
9737 1 2 0.0 3.662234 -19.608628 97.943508
9738 1 2 0.0 -1.593936 -22.545887 98.541189
9739 1 2 0.0 1.582590 -19.092136 99.831696
9740 1 2 0.0 -2.066007 -20.651395 100.859313
9741 1 2 0.0 -2.784909 -23.153605 101.462924
9742 1 2 0.0 1.355605 -19.935740 96.884210
9743 1 2 0.0 -0.139124 -22.453162 100.993004
9744 1 2 0.0 2.078808 -21.617378 99.104523
9745 1 1 0.0 7.140259 -35.110277 102.007602
9746 1 1 0.0 5.532494 -37.991005 103.971329
9747 1 1 0.0 -0.516164 -35.187892 105.413022
9748 1 1 0.0 1.590551 -37.732527 103.961419
9749 1 2 0.0 9.210090 -34.451037 101.522576
9750 1 2 0.0 2.244015 -37.925496 102.053780
9751 1 2 0.0 6.006781 -34.322067 103.421862
9752 1 2 0.0 0.948724 -36.216227 104.385651
9753 1 2 0.0 -0.139251 -38.773808 104.956480
9754 1 2 0.0 6.546664 -34.918631 100.426538
9755 1 2 0.0 3.344808 -37.894670 104.483105
9756 1 2 0.0 6.739889 -36.744997 102.614644
9757 1 1 0.0 6.855492 -30.006722 102.076902
9758 1 1 0.0 5.585736 -32.881473 104.096686
9759 1 1 0.0 -0.007036 -30.089487 105.448605
9760 1 1 0.0 1.861615 -32.617264 104.032512
9761 1 2 0.0 8.739782 -29.368127 101.597632
9762 1 2 0.0 2.304706 -32.799966 102.109325
9763 1 2 0.0 5.897145 -29.213736 103.474788
9764 1 2 0.0 1.280666 -31.104120 104.435706
9765 1 2 0.0 0.332571 -33.671931 105.034619
9766 1 2 0.0 6.156024 -29.813932 100.476044
9767 1 2 0.0 3.564733 -32.783863 104.584303
9768 1 2 0.0 6.572796 -31.636774 102.715049
9769 1 1 0.0 6.470287 -24.910266 102.054048
9770 1 1 0.0 5.529060 -27.773742 104.121429
9771 1 1 0.0 0.443689 -24.985696 105.430508
9772 1 1 0.0 2.065730 -27.499471 104.042287
9773 1 2 0.0 8.152750 -24.297911 101.565229
9774 1 2 0.0 2.315301 -27.674436 102.119022
9775 1 2 0.0 5.682598 -24.108845 103.431645
9776 1 2 0.0 1.549354 -25.988584 104.427785
9777 1 2 0.0 0.741485 -28.565291 105.055018
9778 1 2 0.0 5.690172 -24.715788 100.456453
9779 1 2 0.0 3.692076 -27.671076 104.600747
9780 1 2 0.0 6.301376 -26.534208 102.719832
9781 1 1 0.0 5.982998 -19.821023 101.937532
9782 1 1 0.0 5.364251 -22.667783 104.047194
9783 1 1 0.0 0.834705 -19.876401 105.357533
9784 1 1 0.0 2.203598 -22.379174 103.991389
9785 1 2 0.0 7.446664 -19.240643 101.423223
9786 1 2 0.0 2.276500 -22.548906 102.083510
9787 1 2 0.0 5.360008 -19.007497 103.289565
9788 1 2 0.0 1.754219 -20.869588 104.361364
9789 1 2 0.0 1.088964 -23.454001 105.019029
9790 1 2 0.0 5.147697 -19.624323 100.366469
9791 1 2 0.0 3.728020 -22.556334 104.533522
9792 1 2 0.0 5.925975 -21.437279 102.629308
9793 1 1 0.0 11.000629 -34.780198 105.553217
9794 1 1 0.0 9.340516 -37.844379 107.458258
9795 1 1 0.0 3.353972 -35.507260 108.966945
9796 1 1 0.0 5.412951 -37.819604 107.460291
9797 1 2 0.0 13.060298 -33.970697 105.073259
9798 1 2 0.0 6.059222 -37.875569 105.545554
9799 1 2 0.0 9.896589 -34.144994 106.985311
9800 1 2 0.0 4.807210 -36.379656 107.919954
9801 1 2 0.0 3.647103 -38.998676 108.427496
9802 1 2 0.0 10.405796 -34.536485 103.975544
9803 1 2 0.0 7.163324 -37.903979 107.977291
9804 1 2 0.0 10.568648 -36.464998 106.127556
9805 1 1 0.0 10.782041 -29.717740 105.680283
9806 1 1 0.0 9.500831 -32.781186 107.680902
9807 1 1 0.0 3.915489 -30.445926 109.053387
9808 1 1 0.0 5.781154 -32.742541 107.621544
9809 1 2 0.0 12.653755 -28.932293 105.201928
9810 1 2 0.0 6.223098 -32.779142 105.695537
9811 1 2 0.0 9.834621 -29.082244 107.080474
9812 1 2 0.0 5.209856 -31.304979 108.036479
9813 1 2 0.0 4.232242 -33.938532 108.611932
9814 1 2 0.0 10.078290 -29.463942 104.080057
9815 1 2 0.0 7.483927 -32.837961 108.171487
9816 1 2 0.0 10.492772 -31.398526 106.309254
9817 1 1 0.0 10.379291 -24.668296 105.638379
9818 1 1 0.0 9.465921 -27.721192 107.724849
9819 1 1 0.0 4.335123 -25.371510 109.009424
9820 1 1 0.0 5.997500 -27.659739 107.643716
9821 1 2 0.0 12.047111 -23.915652 105.146380
9822 1 2 0.0 6.251706 -27.682715 105.721720
9823 1 2 0.0 9.584020 -24.025678 107.002902
9824 1 2 0.0 5.465251 -26.222317 108.018038
9825 1 2 0.0 4.668894 -28.867149 108.660081
9826 1 2 0.0 9.592000 -24.405240 104.038697
9827 1 2 0.0 7.626865 -27.768142 108.203042
9828 1 2 0.0 10.228102 -26.342290 106.317910
9829 1 1 0.0 9.789361 -19.632081 105.424736
9830 1 1 0.0 9.238960 -22.664346 107.593002
9831 1 1 0.0 4.609705 -20.283720 108.832143
9832 1 1 0.0 6.063588 -22.571258 107.528269
9833 1 2 0.0 11.236374 -18.921207 104.902939
9834 1 2 0.0 6.146936 -22.586288 105.625832
9835 1 2 0.0 9.139150 -18.975483 106.747435
9836 1 2 0.0 5.572070 -21.131600 107.863416
9837 1 2 0.0 4.960537 -23.784788 108.575134
9838 1 2 0.0 8.943950 -19.360637 103.848728
9839 1 2 0.0 7.594414 -22.694571 108.074040
9840 1 2 0.0 9.775260 -21.296256 106.154093
9841 1 1 0.0 14.858553 -34.415522 109.098831
9842 1 1 0.0 13.147740 -37.649060 110.945187
9843 1 1 0.0 7.227021 -35.795044 112.520867
9844 1 1 0.0 9.237069 -37.861236 110.959163
9845 1 2 0.0 16.906891 -33.457105 108.623942
9846 1 2 0.0 9.874429 -37.778954 109.037328
9847 1 2 0.0 13.785440 -33.938753 110.548760
9848 1 2 0.0 8.667712 -36.505898 111.454257
9849 1 2 0.0 7.437298 -39.172805 111.898512
9850 1 2 0.0 14.262031 -34.121095 107.524549
9851 1 2 0.0 10.982843 -37.866418 111.471477
9852 1 2 0.0 14.395077 -36.142019 109.640468
9853 1 1 0.0 14.708100 -29.421815 109.283665
9854 1 1 0.0 13.415583 -32.660015 111.265119
9855 1 1 0.0 7.838420 -30.797960 112.658170
9856 1 1 0.0 9.701376 -32.849715 111.210576
9857 1 2 0.0 16.567132 -28.490974 108.806224
9858 1 2 0.0 10.141489 -32.738845 109.281748
9859 1 2 0.0 13.772052 -28.949345 110.686161
9860 1 2 0.0 9.139582 -31.495944 111.637251
9861 1 2 0.0 8.133691 -34.181638 112.189245
9862 1 2 0.0 14.000043 -29.108058 107.684070
9863 1 2 0.0 11.403533 -32.872798 111.758671
9864 1 2 0.0 14.411921 -31.145015 109.903460
9865 1 1 0.0 14.289760 -24.447040 109.222711
9866 1 1 0.0 13.402896 -27.675567 111.328269
9867 1 1 0.0 8.224457 -25.780098 112.588340
9868 1 1 0.0 9.928922 -27.829247 111.245145
9869 1 2 0.0 15.943896 -23.555673 108.727531
9870 1 2 0.0 10.188111 -27.698736 109.324418
9871 1 2 0.0 13.486306 -23.968867 110.574158
9872 1 2 0.0 9.380205 -26.473452 111.608291
9873 1 2 0.0 8.596019 -29.172753 112.265144
9874 1 2 0.0 13.495699 -24.116146 107.620941
9875 1 2 0.0 11.561476 -27.873558 111.805338
9876 1 2 0.0 14.155503 -26.162827 109.915988
9877 1 1 0.0 13.599143 -19.491507 108.911940
9878 1 1 0.0 13.114239 -22.695643 111.138809
9879 1 1 0.0 8.380100 -20.740992 112.306753
9880 1 1 0.0 9.922195 -22.799924 111.065148
9881 1 2 0.0 15.031526 -18.651817 108.382655
9882 1 2 0.0 10.017372 -22.658627 109.168153
9883 1 2 0.0 12.920068 -18.997586 110.205305
9884 1 2 0.0 9.387497 -21.438309 111.365468
9885 1 2 0.0 8.829764 -24.146566 112.131238
9886 1 2 0.0 12.744457 -19.145753 107.330988
9887 1 2 0.0 11.460038 -22.868769 111.614558
9888 1 2 0.0 13.626724 -21.195406 109.678877
9889 1 1 0.0 18.713922 -34.014695 112.644446
9890 1 1 0.0 16.954128 -37.402777 114.432116
9891 1 1 0.0 11.103086 -36.050104 116.074790
9892 1 1 0.0 13.062969 -37.855713 114.458034
9893 1 2 0.0 20.749690 -32.908641 112.174626
9894 1 2 0.0 13.689635 -37.634060 112.529101
9895 1 2 0.0 17.673290 -33.702003 114.112209
9896 1 2 0.0 12.530305 -36.593578 114.988560
9897 1 2 0.0 11.231475 -39.294335 115.369527
9898 1 2 0.0 18.115254 -33.671148 111.073554
9899 1 2 0.0 14.803408 -37.779970 114.965663
9900 1 2 0.0 18.219069 -35.774096 113.153380
9901 1 1 0.0 18.633646 -29.118638 112.887047
9902 1 1 0.0 17.329976 -32.516985 114.849336
9903 1 1 0.0 11.761772 -31.145430 116.262953
9904 1 1 0.0 13.622309 -32.938105 114.799608
9905 1 2 0.0 20.479883 -28.043902 112.410520
9906 1 2 0.0 14.059881 -32.678412 112.867960
9907 1 2 0.0 17.709434 -28.814976 114.291848
9908 1 2 0.0 13.069864 -31.676651 115.238024
9909 1 2 0.0 12.036984 -34.400387 115.766558
9910 1 2 0.0 17.921261 -28.746047 111.288083
9911 1 2 0.0 15.323568 -32.887547 115.345855
9912 1 2 0.0 18.330205 -30.875544 113.497665
9913 1 1 0.0 18.201758 -24.247430 112.807042
9914 1 1 0.0 17.339990 -27.637190 114.931689
9915 1 1 0.0 12.111616 -26.212279 116.167257
9916 1 1 0.0 13.859981 -28.008340 114.846573
9917 1 2 0.0 19.843221 -23.219061 112.308681
9918 1 2 0.0 14.124516 -27.722763 112.927115
9919 1 2 0.0 17.389495 -23.939623 114.145415
9920 1 2 0.0 13.294180 -26.742632 115.198545
9921 1 2 0.0 12.522850 -29.482243 115.870207
9922 1 2 0.0 17.401342 -23.849355 111.203186
9923 1 2 0.0 15.495901 -27.987683 115.407633
9924 1 2 0.0 18.083610 -25.996388 113.514065
9925 1 1 0.0 17.412497 -19.401478 112.399144
9926 1 1 0.0 16.990113 -22.763293 114.684616
9927 1 1 0.0 12.145723 -21.250017 115.781364
9928 1 1 0.0 13.779367 -23.066546 114.602028
9929 1 2 0.0 18.832387 -18.434913 111.862370
9930 1 2 0.0 13.887808 -22.767115 112.710474
9931 1 2 0.0 16.702841 -19.076295 113.663175
9932 1 2 0.0 13.200411 -21.791367 114.867519
9933 1 2 0.0 12.696559 -24.540470 115.687343
9934 1 2 0.0 16.549386 -18.981603 110.813247
9935 1 2 0.0 15.324860 -23.080474 115.155076
9936 1 2 0.0 17.480465 -21.136563 113.203662
9937 1 1 0.0 22.566572 -33.575380 116.190060
9938 1 1 0.0 20.759626 -37.102144 117.919046
9939 1 1 0.0 14.982333 -36.270659 119.628712
9940 1 1 0.0 16.890752 -37.800384 117.956906
9941 1 2 0.0 24.588437 -32.322905 115.725309
9942 1 2 0.0 17.504842 -37.438359 116.020875
9943 1 2 0.0 21.560075 -33.432741 117.675659
9944 1 2 0.0 16.395105 -36.640555 118.522864
9945 1 2 0.0 15.029852 -39.360364 118.840543
9946 1 2 0.0 21.965289 -33.184623 114.622559
9947 1 2 0.0 18.625084 -37.641594 118.459849
9948 1 2 0.0 22.040465 -35.358296 116.666292
9949 1 1 0.0 22.558647 -28.807738 116.490429
9950 1 1 0.0 21.243988 -32.350645 118.433552
9951 1 1 0.0 15.685568 -31.488086 119.867735
9952 1 1 0.0 17.543991 -33.006655 118.388640
9953 1 2 0.0 24.391965 -27.590681 116.014816
9954 1 2 0.0 17.978273 -32.596787 116.454171
9955 1 2 0.0 21.646765 -28.679039 117.897534
9956 1 2 0.0 17.000733 -31.846530 118.838796
9957 1 2 0.0 15.942222 -34.593436 119.343871
9958 1 2 0.0 21.841914 -28.377550 114.892096
9959 1 2 0.0 19.244060 -32.880958 118.933039
9960 1 2 0.0 22.247567 -30.589072 117.091870
9961 1 1 0.0 22.115385 -24.070862 116.391373
9962 1 1 0.0 21.277210 -27.606541 118.535108
9963 1 1 0.0 15.996482 -26.669341 119.746173
9964 1 1 0.0 17.790657 -28.197560 118.448002
9965 1 2 0.0 23.745263 -22.907422 115.889832
9966 1 2 0.0 18.060921 -27.755215 116.529813
9967 1 2 0.0 21.293648 -23.939757 117.716672
9968 1 2 0.0 17.207122 -27.030859 118.788798
9969 1 2 0.0 16.449371 -29.795832 119.475270
9970 1 2 0.0 21.309042 -23.606170 114.785430
9971 1 2 0.0 19.430128 -28.111060 119.009929
9972 1 2 0.0 22.012470 -25.843823 117.112143
9973 1 1 0.0 21.229654 -19.365256 115.886348
9974 1 1 0.0 20.866622 -22.869711 118.230424
9975 1 1 0.0 15.906314 -21.813615 119.255974
9976 1 1 0.0 17.635025 -23.373260 118.138907
9977 1 2 0.0 22.639349 -18.274106 115.342086
9978 1 2 0.0 17.758244 -22.913643 116.252796
9979 1 2 0.0 20.487592 -19.215327 117.121045
9980 1 2 0.0 17.010673 -22.193347 118.369571
9981 1 2 0.0 16.560787 -24.968273 119.243448
9982 1 2 0.0 20.358995 -18.871151 114.295506
9983 1 2 0.0 19.188830 -23.332020 118.695594
9984 1 2 0.0 21.336633 -21.122470 116.728447
9985 1 1 0.0 26.416265 -33.094230 119.735674
9986 1 1 0.0 24.564153 -36.742312 121.405975
9987 1 1 0.0 18.865002 -36.454107 123.182635
9988 1 1 0.0 20.720562 -37.691397 121.455778
9989 1 2 0.0 28.422756 -31.696469 119.275992
9990 1 2 0.0 21.320049 -37.188151 119.512649
9991 1 2 0.0 25.445699 -33.128093 121.239108
9992 1 2 0.0 20.262281 -36.643712 122.057167
9993 1 2 0.0 18.832751 -39.366667 122.311559
9994 1 2 0.0 25.811881 -32.658598 118.171564
9995 1 2 0.0 22.447964 -37.446910 121.954035
9996 1 2 0.0 25.859038 -34.890410 120.179204
9997 1 1 0.0 26.483054 -28.488445 120.093810
9998 1 1 0.0 25.157584 -32.158915 122.017769
9999 1 1 0.0 19.609841 -31.825567 123.472518
10000 1 1 0.0 21.466481 -33.053830 121.977672
10001 1 2 0.0 28.303317 -27.130746 119.619112
10002 1 2 0.0 21.896664 -32.492428 120.040383
10003 1 2 0.0 25.584040 -28.541396 121.503221
10004 1 2 0.0 20.932235 -32.004752 122.439569
10005 1 2 0.0 19.849554 -34.758826 122.921184
10006 1 2 0.0 25.761957 -28.002050 118.496109
10007 1 2 0.0 23.165047 -32.851230 122.520223
10008 1 2 0.0 26.163926 -30.284103 120.686076
10009 1 1 0.0 26.030782 -23.919343 119.975704
10010 1 1 0.0 25.214569 -27.584311 122.138528
10011 1 1 0.0 19.878880 -27.153157 123.325089
10012 1 1 0.0 21.720921 -28.397688 122.049430
10013 1 2 0.0 27.650271 -22.623055 119.470982
10014 1 2 0.0 21.997326 -27.796706 120.132511
10015 1 2 0.0 25.198850 -23.971865 121.287928
10016 1 2 0.0 21.118952 -27.339592 122.379051
10017 1 2 0.0 20.375558 -30.113833 123.080333
10018 1 2 0.0 25.218965 -23.388478 118.367674
10019 1 2 0.0 23.364140 -28.244468 122.612224
10020 1 2 0.0 25.942148 -25.706352 120.710221
10021 1 1 0.0 25.050944 -19.387524 119.373552
10022 1 1 0.0 24.743824 -23.018357 121.776231
10023 1 1 0.0 19.661494 -22.435897 122.730584
10024 1 1 0.0 21.489049 -23.723166 121.675787
10025 1 2 0.0 26.452973 -18.174556 118.821801
10026 1 2 0.0 21.628680 -23.100984 119.795117
10027 1 2 0.0 24.274496 -19.420013 120.578914
10028 1 2 0.0 20.818079 -22.647995 121.871623
10029 1 2 0.0 20.422255 -25.432556 122.799552
10030 1 2 0.0 24.173658 -18.818689 117.777765
10031 1 2 0.0 23.051876 -23.626768 122.236113
10032 1 2 0.0 25.195440 -21.157061 120.253232
10033 1 1 0.0 30.262664 -32.566475 123.281289
10034 1 1 0.0 28.367597 -36.316374 124.892904
10035 1 1 0.0 22.751433 -36.596746 126.736557
10036 1 1 0.0 24.552608 -37.523265 124.954650
10037 1 2 0.0 32.252118 -31.024443 122.826675
10038 1 2 0.0 25.135255 -36.878153 123.004423
10039 1 2 0.0 29.330029 -32.783970 124.802557
10040 1 2 0.0 24.132073 -36.598612 125.591470
10041 1 2 0.0 22.640627 -39.307224 125.782574
10042 1 2 0.0 29.654667 -32.088912 121.720569
10043 1 2 0.0 26.272182 -37.189684 125.448221
10044 1 2 0.0 29.674461 -34.364445 123.692117
10045 1 1 0.0 30.406800 -28.159801 123.697192
10046 1 1 0.0 29.070715 -31.938833 125.601986
10047 1 1 0.0 23.534639 -32.157355 127.077300
10048 1 1 0.0 25.389862 -33.077445 125.566704
10049 1 2 0.0 32.213851 -26.663289 123.223408
10050 1 2 0.0 25.815056 -32.363132 123.626594
10051 1 2 0.0 29.521252 -28.401851 125.108908
10052 1 2 0.0 24.864432 -32.150136 126.040341
10053 1 2 0.0 23.759191 -34.893771 126.498498
10054 1 2 0.0 29.681325 -27.618808 122.100122
10055 1 2 0.0 27.086584 -32.795802 126.107407
10056 1 2 0.0 30.079166 -29.958510 124.280281
10057 1 1 0.0 29.948151 -23.795727 123.560036
10058 1 1 0.0 29.152081 -27.571482 125.741948
10059 1 1 0.0 23.758565 -27.666398 126.904005
10060 1 1 0.0 25.650730 -28.609840 125.650859
10061 1 2 0.0 31.558601 -22.369236 123.052133
10062 1 2 0.0 25.933731 -27.848111 123.735209
10063 1 2 0.0 29.105221 -24.039643 124.859185
10064 1 2 0.0 25.029558 -27.670906 125.969304
10065 1 2 0.0 24.301377 -30.436689 126.685396
10066 1 2 0.0 29.131343 -23.198965 121.949918
10067 1 2 0.0 27.297914 -28.389019 126.214520
10068 1 2 0.0 29.872738 -25.585711 124.308299
10069 1 1 0.0 28.876840 -19.474951 122.860756
10070 1 1 0.0 28.621799 -23.214157 125.322039
10071 1 1 0.0 23.410724 -23.122722 126.205194
10072 1 1 0.0 25.341275 -24.120681 125.212666
10073 1 2 0.0 30.274059 -18.143622 122.301517
10074 1 2 0.0 25.499116 -23.333091 123.337438
10075 1 2 0.0 28.063801 -19.697940 124.036784
10076 1 2 0.0 24.622340 -23.160645 125.373674
10077 1 2 0.0 24.280682 -25.936997 126.355657
10078 1 2 0.0 27.993909 -18.830325 121.260025
10079 1 2 0.0 26.913895 -23.969501 125.776631
10080 1 2 0.0 29.057190 -21.245936 123.778016
10081 1 1 0.0 -27.321596 -31.318673 84.084854
10082 1 1 0.0 -28.749446 -32.244296 86.459375
10083 1 1 0.0 -33.771015 -25.386322 87.432116
10084 1 1 0.0 -32.233602 -29.596887 86.365868
10085 1 2 0.0 -25.355895 -32.200970 83.564345
10086 1 2 0.0 -31.830976 -30.815184 84.507913
10087 1 2 0.0 -28.222564 -29.373195 85.374269
10088 1 2 0.0 -32.707833 -27.630517 86.542082
10089 1 2 0.0 -33.600842 -29.216849 87.555922
10090 1 2 0.0 -27.948554 -31.381804 82.480054
10091 1 2 0.0 -30.661486 -30.645321 86.920354
10092 1 2 0.0 -27.719725 -32.309596 84.920811
10093 1 1 0.0 -27.005302 -26.654612 83.749781
10094 1 1 0.0 -28.414325 -27.541568 85.903721
10095 1 1 0.0 -32.716303 -20.925088 87.111678
10096 1 1 0.0 -31.671138 -25.003136 85.805841
10097 1 2 0.0 -25.174527 -27.499226 83.264112
10098 1 2 0.0 -31.499084 -26.229734 83.902397
10099 1 2 0.0 -27.629503 -24.733969 85.131532
10100 1 2 0.0 -31.919485 -23.095275 86.126850
10101 1 2 0.0 -32.978968 -24.623802 86.889979
10102 1 2 0.0 -27.716056 -26.765268 82.144504
10103 1 2 0.0 -30.150818 -25.993319 86.370566
10104 1 2 0.0 -27.470093 -27.621799 84.452163
10105 1 1 0.0 -26.207351 -22.061429 83.860281
10106 1 1 0.0 -27.601657 -22.935778 85.794043
10107 1 1 0.0 -31.158360 -16.624278 87.274647
10108 1 1 0.0 -30.597899 -20.542226 85.728839
10109 1 2 0.0 -24.526248 -22.848261 83.393727
10110 1 2 0.0 -30.633854 -21.761680 83.796690
10111 1 2 0.0 -26.563143 -20.182769 85.329400
10112 1 2 0.0 -30.624798 -18.700616 86.192563
10113 1 2 0.0 -31.842213 -20.185645 86.716129
10114 1 2 0.0 -26.976137 -22.214927 82.277294
10115 1 2 0.0 -29.151237 -21.459952 86.281230
10116 1 2 0.0 -26.739220 -23.012898 84.429839
10117 1 1 0.0 -24.919849 -17.540287 84.423656
10118 1 1 0.0 -26.319203 -18.425353 86.123094
10119 1 1 0.0 -29.085952 -12.487474 87.931814
10120 1 1 0.0 -29.019256 -16.212759 86.129784
10121 1 2 0.0 -23.401743 -18.249089 83.961766
10122 1 2 0.0 -29.242735 -17.409383 84.183813
10123 1 2 0.0 -25.009349 -15.722224 85.981029
10124 1 2 0.0 -28.819210 -14.447809 86.743554
10125 1 2 0.0 -30.202634 -15.898751 87.022847
10126 1 2 0.0 -25.719282 -17.732021 82.887206
10127 1 2 0.0 -27.669004 -17.043700 86.646447
10128 1 2 0.0 -25.528692 -18.482632 84.852366
10129 1 1 0.0 -23.516696 -32.071990 87.630468
10130 1 1 0.0 -25.067921 -33.259557 89.946305
10131 1 1 0.0 -30.131453 -26.754277 90.986038
10132 1 1 0.0 -28.603644 -30.827991 89.864740
10133 1 2 0.0 -21.518000 -32.794534 87.115029
10134 1 2 0.0 -28.169239 -31.927333 87.999687
10135 1 2 0.0 -24.423722 -30.241254 88.937718
10136 1 2 0.0 -29.048294 -28.884686 90.076385
10137 1 2 0.0 -30.059776 -30.610839 91.026938
10138 1 2 0.0 -24.129061 -32.080158 86.029059
10139 1 2 0.0 -27.014050 -31.804170 90.414540
10140 1 2 0.0 -23.970056 -33.162781 88.433723
10141 1 1 0.0 -23.115688 -27.265796 87.353163
10142 1 1 0.0 -24.598793 -28.431014 89.487937
10143 1 1 0.0 -28.972073 -22.147678 90.716461
10144 1 1 0.0 -27.903771 -26.097278 89.394873
10145 1 2 0.0 -21.262585 -27.953738 86.868408
10146 1 2 0.0 -27.699109 -27.193858 87.488609
10147 1 2 0.0 -23.757652 -25.461864 88.737219
10148 1 2 0.0 -28.144917 -24.206620 89.727623
10149 1 2 0.0 -29.277990 -25.889387 90.467292
10150 1 2 0.0 -23.815850 -27.309535 85.748517
10151 1 2 0.0 -26.367676 -27.023810 89.957750
10152 1 2 0.0 -23.608219 -28.339600 88.046369
10153 1 1 0.0 -22.316062 -22.518262 87.444612
10154 1 1 0.0 -23.735730 -23.682438 89.397462
10155 1 1 0.0 -27.389336 -17.676041 90.853563
10156 1 1 0.0 -26.775354 -21.478019 89.330268
10157 1 2 0.0 -20.623636 -23.154654 86.974878
10158 1 2 0.0 -26.778822 -22.559471 87.399388
10159 1 2 0.0 -22.700638 -20.755184 88.900657
10160 1 2 0.0 -26.816255 -19.646633 89.782817
10161 1 2 0.0 -28.063507 -21.298101 90.321192
10162 1 2 0.0 -23.078401 -22.594256 85.859539
10163 1 2 0.0 -25.315089 -22.342018 89.883525
10164 1 2 0.0 -22.848620 -23.581628 88.027917
10165 1 1 0.0 -21.111286 -17.830349 87.910860
10166 1 1 0.0 -22.485134 -19.012528 89.668902
10167 1 1 0.0 -25.373789 -13.342378 91.406424
10168 1 1 0.0 -25.222899 -16.969042 89.666663
10169 1 2 0.0 -19.593500 -18.398114 87.441482
10170 1 2 0.0 -25.414664 -18.022787 87.726134
10171 1 2 0.0 -21.241008 -16.123385 89.438898
10172 1 2 0.0 -25.058476 -15.205789 90.245606
10173 1 2 0.0 -26.426461 -16.833934 90.578952
10174 1 2 0.0 -21.908759 -17.935356 86.369465
10175 1 2 0.0 -23.861491 -17.757530 90.186965
10176 1 2 0.0 -21.692569 -18.888652 88.377151
10177 1 1 0.0 -19.705905 -32.785281 91.176082
10178 1 1 0.0 -21.375215 -34.219739 93.433234
10179 1 1 0.0 -26.479941 -28.084752 94.539961
10180 1 1 0.0 -24.959645 -32.005105 93.363612
10181 1 2 0.0 -17.675987 -33.350235 90.665712
10182 1 2 0.0 -24.494879 -32.982136 91.491461
10183 1 2 0.0 -20.618695 -31.076059 92.501168
10184 1 2 0.0 -25.376479 -30.094644 93.610688
10185 1 2 0.0 -26.500611 -31.944660 94.497953
10186 1 2 0.0 -20.304345 -32.738479 89.578064
10187 1 2 0.0 -23.353544 -32.909151 93.908726
10188 1 2 0.0 -20.212299 -33.966629 91.946635
10189 1 1 0.0 -19.224893 -27.868950 90.956545
10190 1 1 0.0 -20.778466 -29.296837 93.072154
10191 1 1 0.0 -25.226176 -23.365041 94.321244
10192 1 1 0.0 -24.130811 -27.169913 92.983905
10193 1 2 0.0 -17.349964 -28.402004 90.472704
10194 1 2 0.0 -23.893870 -28.134065 91.074820
10195 1 2 0.0 -19.885502 -26.188156 92.342906
10196 1 2 0.0 -24.367083 -25.306203 93.328395
10197 1 2 0.0 -25.568630 -27.127109 94.044605
10198 1 2 0.0 -19.914717 -27.846705 89.352530
10199 1 2 0.0 -22.579162 -28.032166 93.544934
10200 1 2 0.0 -19.743474 -29.039880 91.640574
10201 1 1 0.0 -18.428300 -22.999059 91.028944
10202 1 1 0.0 -19.871393 -24.436929 93.000882
10203 1 1 0.0 -23.628927 -18.754828 94.432479
10204 1 1 0.0 -22.955664 -22.424789 92.931696
10205 1 2 0.0 -16.723782 -23.486418 90.556028
10206 1 2 0.0 -22.925883 -23.366771 91.002085
10207 1 2 0.0 -18.843723 -21.357647 92.471913
10208 1 2 0.0 -23.013456 -20.613338 93.373070
10209 1 2 0.0 -24.286138 -22.415002 93.926255
10210 1 2 0.0 -19.184035 -22.999421 89.441783
10211 1 2 0.0 -21.481269 -23.233681 93.485821
10212 1 2 0.0 -18.960364 -24.164656 91.625995
10213 1 1 0.0 -17.310957 -18.176369 91.398064
10214 1 1 0.0 -18.659041 -19.638991 93.214709
10215 1 1 0.0 -21.680524 -14.256560 94.881034
10216 1 1 0.0 -21.437845 -17.768784 93.203543
10217 1 2 0.0 -15.791455 -18.604127 90.921197
10218 1 2 0.0 -21.596045 -18.679127 91.268455
10219 1 2 0.0 -17.484142 -16.586244 92.896768
10220 1 2 0.0 -21.312496 -16.016908 93.747658
10221 1 2 0.0 -22.661343 -17.805868 94.135057
10222 1 2 0.0 -18.105902 -18.197464 89.851725
10223 1 2 0.0 -20.064008 -18.512691 93.727483
10224 1 2 0.0 -17.864005 -19.340786 91.901936
10225 1 1 0.0 -15.889649 -33.461430 94.721697
10226 1 1 0.0 -17.672114 -35.128715 96.920163
10227 1 1 0.0 -22.817463 -29.380825 98.093883
10228 1 1 0.0 -21.302732 -33.132567 96.862484
10229 1 2 0.0 -13.830137 -33.870651 94.216395
10230 1 2 0.0 -20.808964 -33.984442 94.983235
10231 1 2 0.0 -16.807923 -31.879971 96.064617
10232 1 2 0.0 -21.693384 -31.263975 97.144991
10233 1 2 0.0 -22.924818 -33.223213 97.968969
10234 1 2 0.0 -16.474814 -33.359890 93.127070
10235 1 2 0.0 -19.680936 -33.964261 97.402912
10236 1 2 0.0 -16.447030 -34.724660 95.459548
10237 1 1 0.0 -15.333001 -28.464652 94.559926
10238 1 1 0.0 -16.953680 -30.140699 96.656371
10239 1 1 0.0 -21.478750 -24.577604 97.926026
10240 1 1 0.0 -20.352707 -28.222769 96.572937
10241 1 2 0.0 -13.436709 -28.844449 94.077000
10242 1 2 0.0 -20.083811 -29.052375 94.661031
10243 1 2 0.0 -16.013076 -26.912959 95.948592
10244 1 2 0.0 -20.586249 -26.394979 96.929168
10245 1 2 0.0 -21.851571 -28.339239 97.621918
10246 1 2 0.0 -16.012731 -28.377329 92.956543
10247 1 2 0.0 -18.785676 -29.020028 97.132118
10248 1 2 0.0 -15.876061 -29.723890 95.234779
10249 1 1 0.0 -14.543811 -23.502095 94.613275
10250 1 1 0.0 -16.008535 -25.198703 96.604302
10251 1 1 0.0 -19.876425 -19.858420 98.011395
10252 1 1 0.0 -19.138599 -23.381652 96.533125
10253 1 2 0.0 -12.826500 -23.841824 94.137179
10254 1 2 0.0 -19.074861 -24.182777 94.604783
10255 1 2 0.0 -14.991998 -21.988024 96.043170
10256 1 2 0.0 -19.215936 -21.599054 96.963323
10257 1 2 0.0 -20.509997 -23.535984 97.531318
10258 1 2 0.0 -15.292776 -23.428408 93.024027
10259 1 2 0.0 -17.649606 -24.134229 97.088116
10260 1 2 0.0 -15.074285 -24.760960 95.224072
10261 1 1 0.0 -13.518270 -18.574318 94.885268
10262 1 1 0.0 -14.840363 -20.301981 96.760517
10263 1 1 0.0 -18.004604 -15.225148 98.355644
10264 1 1 0.0 -17.663185 -18.608495 96.740423
10265 1 2 0.0 -11.995185 -18.863245 94.400913
10266 1 2 0.0 -17.786077 -19.374775 94.810777
10267 1 2 0.0 -13.737936 -17.106419 96.354638
10268 1 2 0.0 -17.580074 -16.876859 97.249709
10269 1 2 0.0 -18.906381 -18.811559 97.691162
10270 1 2 0.0 -14.310115 -18.513757 93.333984
10271 1 2 0.0 -16.275809 -19.306113 97.268001
10272 1 2 0.0 -14.042462 -19.835744 95.426721
10273 1 1 0.0 -12.068220 -34.102421 98.267311
10274 1 1 0.0 -13.959157 -35.989140 100.407092
10275 1 1 0.0 -19.144704 -30.644646 101.647806
10276 1 1 0.0 -17.633691 -34.213396 100.361355
10277 1 2 0.0 -9.980641 -34.357545 97.767078
10278 1 2 0.0 -17.112239 -34.937640 98.475009
10279 1 2 0.0 -12.991707 -32.654612 99.628066
10280 1 2 0.0 -17.999703 -32.395176 100.679294
10281 1 2 0.0 -19.333428 -34.449915 101.439985
10282 1 2 0.0 -12.640752 -33.946563 96.676075
10283 1 2 0.0 -15.996898 -34.972264 100.897098
10284 1 2 0.0 -12.674646 -35.439292 98.972460
10285 1 1 0.0 -11.440070 -29.053300 98.163308
10286 1 1 0.0 -13.124667 -30.963736 100.240587
10287 1 1 0.0 -17.729889 -25.785669 101.530809
10288 1 1 0.0 -16.569771 -29.257049 100.161968
10289 1 2 0.0 -9.522854 -29.281364 97.681296
10290 1 2 0.0 -16.269243 -29.950203 98.247243
10291 1 2 0.0 -12.140387 -27.636351 99.554279
10292 1 2 0.0 -16.802598 -27.473611 100.529940
10293 1 2 0.0 -18.127288 -29.527358 101.199231
10294 1 2 0.0 -12.109941 -28.901794 96.560556
10295 1 2 0.0 -14.987493 -29.988534 100.719302
10296 1 2 0.0 -12.006122 -30.392490 98.828985
10297 1 1 0.0 -10.662419 -24.026180 98.197606
10298 1 1 0.0 -12.147078 -25.967381 100.207722
10299 1 1 0.0 -16.131337 -20.985266 101.590311
10300 1 1 0.0 -15.324000 -24.347997 100.134553
10301 1 2 0.0 -8.931661 -24.219691 97.718329
10302 1 2 0.0 -15.225631 -25.006926 98.207481
10303 1 2 0.0 -11.145193 -22.644849 99.614427
10304 1 2 0.0 -15.423369 -22.602614 100.553577
10305 1 2 0.0 -16.735008 -24.660796 101.136381
10306 1 2 0.0 -11.404442 -23.879814 96.606272
10307 1 2 0.0 -13.819979 -25.043169 100.690412
10308 1 2 0.0 -11.190268 -25.369840 98.822150
10309 1 1 0.0 -9.732817 -19.021419 98.372472
10310 1 1 0.0 -11.028714 -20.999603 100.306324
10311 1 1 0.0 -14.344944 -16.244745 101.830254
10312 1 1 0.0 -13.898288 -19.485743 100.277302
10313 1 2 0.0 -8.204403 -19.172816 97.880628
10314 1 2 0.0 -13.984203 -20.107191 98.353098
10315 1 2 0.0 -10.001831 -17.680904 99.812508
10316 1 2 0.0 -13.860376 -17.782638 100.751761
10317 1 2 0.0 -15.160945 -19.848920 101.247266
10318 1 2 0.0 -10.520980 -18.881049 96.816243
10319 1 2 0.0 -12.496380 -20.135678 100.808519
10320 1 2 0.0 -10.227569 -20.371265 98.951505
10321 1 1 0.0 -8.241805 -34.709536 101.812925
10322 1 1 0.0 -10.236690 -36.802713 103.894022
10323 1 1 0.0 -15.462123 -31.877660 105.201729
10324 1 1 0.0 -13.953048 -35.249611 103.860227
10325 1 2 0.0 -6.127621 -34.812029 101.317761
10326 1 2 0.0 -13.405210 -35.844022 101.966783
10327 1 2 0.0 -9.170240 -33.401024 103.191515
10328 1 2 0.0 -14.295899 -33.489920 104.213597
10329 1 2 0.0 -15.727129 -35.627057 104.911001
10330 1 2 0.0 -8.802345 -34.499935 100.225080
10331 1 2 0.0 -12.301867 -35.934965 104.391284
10332 1 2 0.0 -8.895403 -36.112083 102.485372
10333 1 1 0.0 -7.546140 -29.635152 101.766690
10334 1 1 0.0 -9.291575 -31.766680 103.824804
10335 1 1 0.0 -13.979659 -26.989437 105.135591
10336 1 1 0.0 -12.782214 -30.273556 103.751000
10337 1 2 0.0 -5.608417 -29.712932 101.285592
10338 1 2 0.0 -12.450377 -30.828505 101.833454
10339 1 2 0.0 -8.267445 -28.358383 103.159966
10340 1 2 0.0 -13.016254 -28.542546 104.130713
10341 1 2 0.0 -14.396102 -30.692527 104.776545
10342 1 2 0.0 -8.206381 -29.420355 100.164570
10343 1 2 0.0 -11.184793 -30.938423 104.306486
10344 1 2 0.0 -8.133747 -31.046231 102.423190
10345 1 1 0.0 -6.784012 -24.570547 101.781937
10346 1 1 0.0 -8.286973 -26.742722 103.811141
10347 1 1 0.0 -12.393329 -22.134325 105.169227
10348 1 1 0.0 -11.511759 -25.323411 103.735982
10349 1 2 0.0 -5.039184 -24.619275 101.299480
10350 1 2 0.0 -11.378109 -25.838839 101.810179
10351 1 2 0.0 -7.303132 -23.327183 103.185683
10352 1 2 0.0 -11.635540 -23.623233 104.143830
10353 1 2 0.0 -12.961120 -25.789269 104.741444
10354 1 2 0.0 -7.518912 -24.352712 100.188516
10355 1 2 0.0 -9.992311 -25.960180 104.292707
10356 1 2 0.0 -7.308239 -25.990846 102.420228
10357 1 1 0.0 -5.954333 -19.515883 101.859676
10358 1 1 0.0 -7.223850 -21.730644 103.852131
10359 1 1 0.0 -10.700816 -17.313064 105.304865
10360 1 1 0.0 -10.142731 -20.398902 103.814182
10361 1 2 0.0 -4.418925 -19.531169 101.360344
10362 1 2 0.0 -10.190045 -20.874661 101.895419
10363 1 2 0.0 -6.275467 -18.307766 103.270378
10364 1 2 0.0 -10.152844 -18.732235 104.253813
10365 1 2 0.0 -11.424616 -20.916551 104.803371
10366 1 2 0.0 -6.738223 -19.297229 100.298502
10367 1 2 0.0 -8.725385 -21.000000 104.349037
10368 1 2 0.0 -6.419088 -20.945895 102.476290
10369 1 1 0.0 -4.410507 -35.283465 105.358540
10370 1 1 0.0 -6.504892 -37.570322 107.380951
10371 1 1 0.0 -11.770000 -33.080740 108.755651
10372 1 1 0.0 -10.261113 -36.242412 107.359099
10373 1 2 0.0 -2.271136 -35.234660 104.868445
10374 1 2 0.0 -9.688186 -36.704998 105.458557
10375 1 2 0.0 -5.343626 -34.119756 106.754964
10376 1 2 0.0 -10.582252 -34.549210 107.747900
10377 1 2 0.0 -12.106334 -36.756014 108.382016
10378 1 2 0.0 -4.959704 -35.020844 103.774085
10379 1 2 0.0 -8.596087 -36.853364 107.885470
10380 1 2 0.0 -5.109436 -36.743861 105.998284
10381 1 1 0.0 -3.651229 -30.210344 105.370072
10382 1 1 0.0 -5.454482 -32.549909 107.409021
10383 1 1 0.0 -10.228097 -28.189030 108.740374
10384 1 1 0.0 -8.990159 -31.272770 107.340032
10385 1 2 0.0 -1.693408 -30.139245 104.889888
10386 1 2 0.0 -8.627343 -31.687869 105.419666
10387 1 2 0.0 -4.394254 -29.079079 106.765653
10388 1 2 0.0 -9.227292 -29.602048 107.731485
10389 1 2 0.0 -10.658204 -31.835383 108.353858
10390 1 2 0.0 -4.302070 -29.933159 103.768583
10391 1 2 0.0 -7.377676 -31.870109 107.893670
10392 1 2 0.0 -4.258984 -31.685408 106.017395
10393 1 1 0.0 -2.908529 -25.134784 105.366269
10394 1 1 0.0 -4.428195 -27.524599 107.414561
10395 1 1 0.0 -8.662203 -23.304968 108.748144
10396 1 1 0.0 -7.701814 -26.307651 107.337411
10397 1 2 0.0 -1.149028 -25.040203 104.880631
10398 1 2 0.0 -7.532245 -26.678281 105.412876
10399 1 2 0.0 -3.465723 -24.034527 106.756940
10400 1 2 0.0 -7.852316 -24.660443 107.734083
10401 1 2 0.0 -9.188303 -26.921300 108.346507
10402 1 2 0.0 -3.636115 -24.846561 103.770760
10403 1 2 0.0 -6.166557 -26.885084 107.895003
10404 1 2 0.0 -3.428157 -26.623736 106.018306
10405 1 1 0.0 -2.182676 -20.056745 105.346880
10406 1 1 0.0 -3.425641 -22.494472 107.397939
10407 1 1 0.0 -7.071781 -18.428726 108.779475
10408 1 1 0.0 -6.396263 -21.347007 107.351061
10409 1 2 0.0 -0.638662 -19.937461 104.840060
10410 1 2 0.0 -6.403370 -21.676127 105.437741
10411 1 2 0.0 -2.558655 -18.985983 106.728247
10412 1 2 0.0 -6.457144 -19.724446 107.755864
10413 1 2 0.0 -7.697140 -22.013614 108.359476
10414 1 2 0.0 -2.961683 -19.761068 103.780762
10415 1 2 0.0 -4.962637 -21.898312 107.889556
10416 1 2 0.0 -2.616891 -21.558858 106.001075
10417 1 1 0.0 -0.574348 -35.824363 108.904154
10418 1 1 0.0 -2.763795 -38.292119 110.867880
10419 1 1 0.0 -8.068453 -34.254259 112.309574
10420 1 1 0.0 -6.558013 -37.192282 110.857971
10421 1 2 0.0 1.588808 -35.625488 108.419128
10422 1 2 0.0 -5.961309 -37.521215 108.950331
10423 1 2 0.0 -1.511884 -34.810917 110.318414
10424 1 2 0.0 -6.858875 -35.573459 111.282203
10425 1 2 0.0 -8.471218 -37.837363 111.853032
10426 1 2 0.0 -1.112867 -35.509592 107.323090
10427 1 2 0.0 -4.879626 -37.727748 111.379656
10428 1 2 0.0 -1.316774 -37.334797 109.511196
10429 1 1 0.0 0.244656 -30.778910 108.973453
10430 1 1 0.0 -1.613400 -33.313490 110.993237
10431 1 1 0.0 -6.475221 -29.384499 112.345157
10432 1 1 0.0 -5.193656 -32.254883 110.929064
10433 1 2 0.0 2.222172 -30.560311 108.494184
10434 1 2 0.0 -4.800200 -32.528565 109.005877
10435 1 2 0.0 -0.520817 -29.798447 110.371339
10436 1 2 0.0 -5.435742 -30.652229 111.332258
10437 1 2 0.0 -6.913674 -32.956193 111.931171
10438 1 2 0.0 -0.397015 -30.440262 107.372596
10439 1 2 0.0 -3.566170 -32.783707 111.480854
10440 1 2 0.0 -0.381844 -32.310081 109.611601
10441 1 1 0.0 0.964044 -25.718798 108.950600
10442 1 1 0.0 -0.570740 -28.312991 111.017981
10443 1 1 0.0 -4.937871 -24.496925 112.327060
10444 1 1 0.0 -3.894139 -27.300620 110.938839
10445 1 2 0.0 2.738810 -25.482439 108.461781
10446 1 2 0.0 -3.688015 -27.525144 109.015574
10447 1 2 0.0 0.367053 -24.766784 110.328197
10448 1 2 0.0 -4.073646 -25.714051 111.324336
10449 1 2 0.0 -5.416543 -28.056848 111.951570
10450 1 2 0.0 0.243975 -25.361165 107.353004
10451 1 2 0.0 -2.342707 -27.817829 111.497298
10452 1 2 0.0 0.449983 -27.268462 109.616384
10453 1 1 0.0 1.582184 -20.643786 108.834084
10454 1 1 0.0 0.365935 -23.290978 110.943746
10455 1 1 0.0 -3.457649 -19.591138 112.254085
10456 1 1 0.0 -2.658781 -22.329670 110.887941
10457 1 2 0.0 3.136396 -20.391620 108.319775
10458 1 2 0.0 -2.624072 -22.511106 108.980062
10459 1 2 0.0 1.148644 -19.715355 110.186117
10460 1 2 0.0 -2.773138 -20.758774 111.257916
10461 1 2 0.0 -3.978412 -23.139755 111.915581
10462 1 2 0.0 0.808698 -20.272120 107.263021
10463 1 2 0.0 -1.208084 -22.830394 111.430074
10464 1 2 0.0 1.179047 -22.209996 109.525860
10465 1 1 0.0 3.266726 -36.331866 112.449769
10466 1 1 0.0 0.986717 -38.967533 114.354810
10467 1 1 0.0 -4.357453 -35.398125 115.863496
10468 1 1 0.0 -2.843698 -38.099027 114.356842
10469 1 2 0.0 5.452260 -35.984059 111.969811
10470 1 2 0.0 -2.224567 -38.292613 112.442105
10471 1 2 0.0 2.325048 -35.474177 113.881863
10472 1 2 0.0 -3.125731 -36.562528 114.816506
10473 1 2 0.0 -4.821726 -38.870928 115.324048
10474 1 2 0.0 2.738191 -35.965979 110.872095
10475 1 2 0.0 -1.152385 -38.557708 114.873842
10476 1 2 0.0 2.482663 -37.884414 113.024108
10477 1 1 0.0 4.141528 -31.340775 112.576835
10478 1 1 0.0 2.231720 -34.057178 114.577454
10479 1 1 0.0 -2.721027 -30.575832 115.949939
10480 1 1 0.0 -1.392685 -33.219816 114.518096
10481 1 2 0.0 6.138330 -30.976056 112.098480
10482 1 2 0.0 -0.968941 -33.350566 112.592089
10483 1 2 0.0 3.352871 -30.516470 113.977026
10484 1 2 0.0 -1.641593 -31.693051 114.933030
10485 1 2 0.0 -3.162487 -34.054875 115.508484
10486 1 2 0.0 3.508789 -30.941626 110.976609
10487 1 2 0.0 0.249766 -33.679051 115.068038
10488 1 2 0.0 3.497702 -32.920082 113.205806
10489 1 1 0.0 4.833675 -26.322806 112.534931
10490 1 1 0.0 3.285376 -29.107979 114.621401
10491 1 1 0.0 -1.220355 -25.710262 115.905976
10492 1 1 0.0 -0.088744 -28.302355 114.540268
10493 1 2 0.0 6.624298 -25.946290 112.042932
10494 1 2 0.0 0.154579 -28.379441 112.618272
10495 1 2 0.0 4.195140 -25.524252 113.899453
10496 1 2 0.0 -0.299546 -26.784122 114.914590
10497 1 2 0.0 -1.645846 -29.195925 115.556633
10498 1 2 0.0 4.121340 -25.896655 110.935249
10499 1 2 0.0 1.479224 -28.758489 115.099594
10500 1 2 0.0 4.326161 -27.925161 113.214461
10501 1 1 0.0 5.340174 -21.277518 112.321288
10502 1 1 0.0 4.150794 -24.120570 114.489553
10503 1 1 0.0 0.141532 -20.800448 115.728695
10504 1 1 0.0 1.069671 -23.347047 114.424820
10505 1 2 0.0 6.906173 -20.894328 111.799491
10506 1 2 0.0 1.147840 -23.379643 112.522383
10507 1 2 0.0 4.846314 -20.496494 113.643987
10508 1 2 0.0 0.899129 -21.835386 114.759968
10509 1 2 0.0 -0.268464 -24.295082 115.471685
10510 1 2 0.0 4.572881 -20.830681 110.745280
10511 1 2 0.0 2.538199 -23.796559 114.970592
10512 1 2 0.0 4.968655 -22.899753 113.050644
10513 1 1 0.0 7.112848 -36.805056 115.995383
10514 1 1 0.0 4.746918 -39.595222 117.841739
10515 1 1 0.0 -0.636819 -36.511771 119.417419
10516 1 1 0.0 0.882065 -38.961758 117.855714
10517 1 2 0.0 9.319328 -36.309378 115.520494
10518 1 2 0.0 1.522211 -39.018414 115.933879
10519 1 2 0.0 6.167315 -36.108746 117.445312
10520 1 2 0.0 0.617377 -37.515713 118.350809
10521 1 2 0.0 -1.157577 -39.855765 118.795063
10522 1 2 0.0 6.593566 -36.389278 114.421100
10523 1 2 0.0 2.585910 -39.342108 118.368028
10524 1 2 0.0 6.289063 -38.391555 116.537020
10525 1 1 0.0 8.039412 -31.895756 116.180217
10526 1 1 0.0 6.080996 -34.780396 118.161671
10527 1 1 0.0 1.034512 -31.762950 119.554722
10528 1 1 0.0 2.412846 -34.167216 118.107128
10529 1 2 0.0 10.055084 -31.386315 115.702776
10530 1 2 0.0 2.866503 -34.153550 116.178300
10531 1 2 0.0 7.226816 -31.233109 117.582713
10532 1 2 0.0 2.155206 -32.724326 118.533803
10533 1 2 0.0 0.595488 -35.130994 119.085797
10534 1 2 0.0 7.415357 -31.437124 114.580622
10535 1 2 0.0 4.070245 -34.555673 118.655222
10536 1 2 0.0 7.379721 -33.514999 116.800011
10537 1 1 0.0 8.700282 -26.947358 116.119262
10538 1 1 0.0 7.140115 -29.909754 118.224820
10539 1 1 0.0 2.490215 -26.945389 119.484892
10540 1 1 0.0 3.714324 -29.313039 118.141696
10541 1 2 0.0 10.507363 -26.432421 115.624082
10542 1 2 0.0 3.995509 -29.241298 116.220969
10543 1 2 0.0 8.018405 -26.307645 117.470710
10544 1 2 0.0 3.469891 -27.870984 118.504843
10545 1 2 0.0 2.123769 -30.338601 119.161696
10546 1 2 0.0 7.995919 -26.453500 114.517493
10547 1 2 0.0 5.299184 -29.707265 118.701890
10548 1 2 0.0 8.200321 -28.594169 116.812539
10549 1 1 0.0 9.091105 -21.959221 115.808492
10550 1 1 0.0 7.928743 -24.984205 118.035361
10551 1 1 0.0 3.725477 -22.057553 119.203305
10552 1 1 0.0 4.788910 -24.399853 117.961700
10553 1 2 0.0 10.670508 -21.447082 115.279206
10554 1 2 0.0 4.912236 -24.282320 116.064705
10555 1 2 0.0 8.534084 -21.330866 117.101857
10556 1 2 0.0 4.559420 -22.955128 118.262019
10557 1 2 0.0 3.432531 -25.480170 119.027790
10558 1 2 0.0 8.330728 -21.437817 114.227539
10559 1 2 0.0 6.275999 -24.797680 118.511110
10560 1 2 0.0 8.751753 -23.629212 116.575429
10561 1 1 0.0 10.964247 -37.242390 119.540997
10562 1 1 0.0 8.517259 -40.172957 121.328668
10563 1 1 0.0 3.093796 -37.594108 122.971341
10564 1 1 0.0 4.619705 -39.778819 121.354586
10565 1 2 0.0 13.190189 -36.599825 119.071177
10566 1 2 0.0 5.279369 -39.697063 119.425653
10567 1 2 0.0 10.015164 -36.713304 121.008761
10568 1 2 0.0 4.370816 -38.431686 121.885112
10569 1 2 0.0 2.521768 -40.790090 122.266079
10570 1 2 0.0 10.453428 -36.778180 117.970106
10571 1 2 0.0 6.335736 -40.078991 121.862214
10572 1 2 0.0 10.102744 -38.854279 120.049932
10573 1 1 0.0 11.938355 -32.443543 119.783599
10574 1 1 0.0 9.934621 -35.482189 121.745887
10575 1 1 0.0 4.791442 -32.945700 123.159504
10576 1 1 0.0 6.223108 -35.096424 121.696160
10577 1 2 0.0 13.972465 -31.790821 119.307072
10578 1 2 0.0 6.706276 -34.936867 119.764511
10579 1 2 0.0 11.101029 -31.948302 121.188399
10580 1 2 0.0 5.954754 -33.745703 122.134576
10581 1 2 0.0 4.360500 -36.183721 122.663110
10582 1 2 0.0 11.322722 -31.926522 118.184635
10583 1 2 0.0 7.895461 -35.412769 122.242406
10584 1 2 0.0 11.264325 -34.094143 120.394217
10585 1 1 0.0 12.563731 -27.593378 119.703594
10586 1 1 0.0 10.993412 -30.718633 121.828240
10587 1 1 0.0 6.193588 -28.203090 123.063808
10588 1 1 0.0 7.514977 -30.333007 121.743125
10589 1 2 0.0 14.387886 -26.941918 119.205233
10590 1 2 0.0 7.834718 -30.110974 119.823667
10591 1 2 0.0 11.836627 -27.118156 121.041967
10592 1 2 0.0 7.234494 -28.975260 122.095096
10593 1 2 0.0 5.892262 -31.485007 122.766759
10594 1 2 0.0 11.867602 -27.032544 118.099737
10595 1 2 0.0 9.117091 -30.664507 122.304185
10596 1 2 0.0 12.072371 -29.276048 120.410617
10597 1 1 0.0 12.834659 -22.691054 119.295696
10598 1 1 0.0 11.699458 -25.883472 121.581168
10599 1 1 0.0 7.293637 -23.364175 122.677915
10600 1 1 0.0 8.498588 -25.489420 121.498579
10601 1 2 0.0 14.429135 -22.052322 118.758922
10602 1 2 0.0 8.668862 -25.220301 119.607026
10603 1 2 0.0 12.211498 -22.220919 120.559726
10604 1 2 0.0 8.207293 -24.119595 121.764071
10605 1 2 0.0 7.124245 -26.696112 122.583895
10606 1 2 0.0 12.081987 -22.095452 117.709799
10607 1 2 0.0 10.004954 -25.835257 122.051628
10608 1 2 0.0 12.528046 -24.400185 120.100214
10609 1 1 0.0 14.821264 -37.641553 123.086612
10610 1 1 0.0 12.298413 -40.697422 124.815597
10611 1 1 0.0 6.834935 -38.643429 126.525264
10612 1 1 0.0 8.369890 -40.547644 124.853458
10613 1 2 0.0 17.065103 -36.853001 122.621861
10614 1 2 0.0 9.047448 -40.326095 122.917427
10615 1 2 0.0 13.868961 -37.285881 124.572210
10616 1 2 0.0 8.135160 -39.308382 125.419415
10617 1 2 0.0 6.217148 -41.671115 125.737095
10618 1 2 0.0 14.318040 -37.130673 121.519111
10619 1 2 0.0 10.097810 -40.765397 125.356400
10620 1 2 0.0 13.924183 -39.269688 123.562844
10621 1 1 0.0 15.838426 -32.983672 123.386980
10622 1 1 0.0 13.792883 -36.161135 125.330104
10623 1 1 0.0 8.549841 -34.123846 126.764287
10624 1 1 0.0 10.038367 -36.006417 125.285192
10625 1 2 0.0 17.890514 -32.189178 122.911368
10626 1 2 0.0 10.550605 -35.699490 123.350723
10627 1 2 0.0 14.975530 -32.661953 124.794086
10628 1 2 0.0 9.757203 -34.756631 125.735348
10629 1 2 0.0 8.132936 -37.211767 126.240423
10630 1 2 0.0 15.230928 -32.409465 121.788648
10631 1 2 0.0 11.725711 -36.249123 125.829590
10632 1 2 0.0 15.151685 -34.656486 123.988422
10633 1 1 0.0 16.423816 -28.262253 123.287925
10634 1 1 0.0 14.845170 -31.535087 125.431660
10635 1 1 0.0 9.889373 -29.484597 126.642724
10636 1 1 0.0 11.313079 -31.362782 125.344554
10637 1 2 0.0 18.265694 -27.476389 122.786384
10638 1 2 0.0 11.672116 -30.988878 123.426365
10639 1 2 0.0 15.649474 -27.957564 124.613224
10640 1 2 0.0 10.993993 -30.097915 125.685350
10641 1 2 0.0 9.659571 -32.635351 126.371822
10642 1 2 0.0 15.736220 -27.635085 121.681982
10643 1 2 0.0 12.932815 -31.630742 125.906481
10644 1 2 0.0 15.942173 -29.971639 124.008695
10645 1 1 0.0 16.570359 -23.476255 122.782900
10646 1 1 0.0 15.462461 -26.820737 125.126976
10647 1 1 0.0 10.845151 -24.723012 126.152525
10648 1 1 0.0 12.198168 -26.617815 125.035459
10649 1 2 0.0 18.181661 -22.713658 122.238638
10650 1 2 0.0 12.417310 -26.195433 123.149347
10651 1 2 0.0 15.877876 -23.170310 124.017596
10652 1 2 0.0 11.842059 -25.331271 125.266123
10653 1 2 0.0 10.806165 -27.944608 126.139999
10654 1 2 0.0 15.826273 -22.806536 121.192058
10655 1 2 0.0 13.724511 -26.911562 125.592146
10656 1 2 0.0 16.297088 -25.215384 123.624999
10657 1 1 0.0 18.684386 -37.999222 126.632226
10658 1 1 0.0 16.091346 -41.163864 128.302527
10659 1 1 0.0 10.587393 -39.657248 130.079186
10660 1 1 0.0 12.133591 -41.264501 128.352330
10661 1 2 0.0 20.944444 -37.065476 126.172544
10662 1 2 0.0 12.827245 -40.901893 126.409201
10663 1 2 0.0 17.729232 -37.823650 128.135660
10664 1 2 0.0 11.911245 -40.142794 128.953718
10665 1 2 0.0 9.929782 -42.494781 129.208110
10666 1 2 0.0 18.187780 -37.443850 125.068116
10667 1 2 0.0 13.873164 -41.397071 128.850587
10668 1 2 0.0 17.754061 -39.633621 127.075756
10669 1 1 0.0 19.739721 -33.515475 126.990362
10670 1 1 0.0 17.656197 -36.815195 128.914321
10671 1 1 0.0 12.309818 -35.297039 130.369070
10672 1 1 0.0 13.859011 -36.895709 128.874224
10673 1 2 0.0 21.809293 -32.580820 126.515664
10674 1 2 0.0 14.399821 -36.439909 126.936934
10675 1 2 0.0 18.850343 -33.373927 128.399773
10676 1 2 0.0 13.562775 -35.756310 129.336121
10677 1 2 0.0 11.913363 -38.213252 129.817736
10678 1 2 0.0 19.140044 -32.885437 125.392661
10679 1 2 0.0 15.561418 -37.062987 129.416774
10680 1 2 0.0 19.042041 -35.200549 127.582627
10681 1 1 0.0 20.280245 -28.955971 126.872256
10682 1 1 0.0 18.695254 -32.359792 129.035080
10683 1 1 0.0 13.576997 -30.791702 130.221641
10684 1 1 0.0 15.108434 -32.403122 128.945982
10685 1 2 0.0 22.140535 -28.038132 126.367534
10686 1 2 0.0 15.507571 -31.875609 127.029063
10687 1 2 0.0 19.456472 -28.828424 128.184480
10688 1 2 0.0 14.747999 -31.240358 129.275603
10689 1 2 0.0 13.425605 -33.789931 129.976885
10690 1 2 0.0 19.601528 -28.263001 125.264226
10691 1 2 0.0 16.746173 -32.606728 129.508776
10692 1 2 0.0 19.809529 -30.682146 127.606773
10693 1 1 0.0 20.297523 -24.319467 126.270104
10694 1 1 0.0 19.217061 -27.799391 128.672783
10695 1 1 0.0 14.378765 -26.137998 129.627136
10696 1 1 0.0 15.886868 -27.788042 128.572339
10697 1 2 0.0 21.927524 -23.436252 125.718353
10698 1 2 0.0 16.156985 -27.210423 126.691669
10699 1 2 0.0 19.532243 -24.184283 127.475466
10700 1 2 0.0 15.462714 -26.593769 128.768175
10701 1 2 0.0 14.477546 -29.228138 129.696104
10702 1 2 0.0 19.563030 -23.575341 124.674317
10703 1 2 0.0 17.433879 -28.029859 129.132664
10704 1 2 0.0 20.058242 -26.078695 127.149783
10705 1 1 0.0 22.554311 -38.310667 130.177840
10706 1 1 0.0 19.897431 -41.565512 131.789456
10707 1 1 0.0 14.352298 -40.632020 133.633109
10708 1 1 0.0 15.912189 -41.924076 131.851201
10709 1 2 0.0 24.828743 -37.232361 129.723227
10710 1 2 0.0 16.619894 -41.419299 129.900975
10711 1 2 0.0 21.596725 -38.322588 131.699109
10712 1 2 0.0 15.700259 -40.930639 132.488021
10713 1 2 0.0 13.661411 -43.255308 132.679126
10714 1 2 0.0 22.063190 -37.713568 128.617121
10715 1 2 0.0 17.663271 -41.967953 132.344773
10716 1 2 0.0 21.593349 -39.940155 130.588668
10717 1 1 0.0 23.642381 -34.038004 130.593744
10718 1 1 0.0 21.525153 -37.441465 132.498537
10719 1 1 0.0 16.071531 -36.464786 133.973852
10720 1 1 0.0 17.685588 -37.762182 132.463256
10721 1 2 0.0 25.728890 -32.964942 130.119960
10722 1 2 0.0 18.254397 -37.155974 130.523146
10723 1 2 0.0 22.725504 -34.084028 132.005460
10724 1 2 0.0 17.371787 -36.743602 132.936893
10725 1 2 0.0 15.702585 -39.185498 133.395049
10726 1 2 0.0 23.050165 -33.353703 128.996674
10727 1 2 0.0 19.403186 -37.851869 133.003958
10728 1 2 0.0 22.935738 -35.724229 131.176833
10729 1 1 0.0 24.132602 -29.677364 130.456587
10730 1 1 0.0 22.543468 -33.193712 132.638499
10731 1 1 0.0 17.255645 -32.126962 133.800557
10732 1 1 0.0 18.900761 -33.455107 132.547411
10733 1 2 0.0 26.012054 -28.630422 129.948685
10734 1 2 0.0 19.340894 -32.772024 130.631760
10735 1 2 0.0 23.256944 -29.734371 131.755737
10736 1 2 0.0 18.495954 -32.404591 132.865856
10737 1 2 0.0 17.190236 -34.949174 133.581948
10738 1 2 0.0 23.463177 -28.918963 128.846470
10739 1 2 0.0 20.556904 -33.593544 133.111072
10740 1 2 0.0 23.674159 -31.409287 131.204851
10741 1 1 0.0 24.015176 -25.227304 129.757308
10742 1 1 0.0 22.962280 -28.824263 132.218590
10743 1 1 0.0 17.892692 -27.614739 133.101746
10744 1 1 0.0 19.563577 -29.004378 132.109218
10745 1 2 0.0 25.665926 -24.227462 129.198069
10746 1 2 0.0 19.887036 -28.269132 130.233990
10747 1 2 0.0 23.173210 -25.270301 130.933336
10748 1 2 0.0 19.067830 -27.912237 132.270226
10749 1 2 0.0 18.137326 -30.550234 133.252209
10750 1 2 0.0 23.291464 -24.407946 128.156576
10751 1 2 0.0 21.131929 -29.194799 132.673182
10752 1 2 0.0 23.810601 -26.995655 130.674568
10753 1 1 0.0 -33.415421 -24.713124 90.981405
10754 1 1 0.0 -35.008871 -25.310161 93.355927
10755 1 1 0.0 -38.438777 -17.533034 94.328668
10756 1 1 0.0 -37.842454 -21.975656 93.262420
10757 1 2 0.0 -31.685345 -25.997361 90.460897
10758 1 2 0.0 -37.711139 -23.252023 91.404465
10759 1 2 0.0 -33.877104 -22.619450 92.270821
10760 1 2 0.0 -37.882887 -19.953313 93.438633
10761 1 2 0.0 -39.096032 -21.310588 94.452474
10762 1 2 0.0 -34.041292 -24.640001 89.376606
10763 1 2 0.0 -36.532475 -23.337538 93.816906
10764 1 2 0.0 -34.017261 -25.595294 91.817363
10765 1 1 0.0 -32.103887 -20.226100 90.646333
10766 1 1 0.0 -33.670637 -20.789421 92.800272
10767 1 1 0.0 -36.449689 -13.402833 94.008230
10768 1 1 0.0 -36.305620 -17.610218 92.702393
10769 1 2 0.0 -30.497481 -21.444530 90.160664
10770 1 2 0.0 -36.401270 -18.845125 90.798949
10771 1 2 0.0 -32.300613 -18.216176 92.028084
10772 1 2 0.0 -36.138027 -15.693574 93.023402
10773 1 2 0.0 -37.501327 -16.958608 93.786531
10774 1 2 0.0 -32.821812 -20.181378 89.041056
10775 1 2 0.0 -35.033704 -18.904075 93.267118
10776 1 2 0.0 -32.765727 -21.070759 91.348715
10777 1 1 0.0 -30.337193 -15.911840 90.756833
10778 1 1 0.0 -31.886860 -16.466012 92.690594
10779 1 1 0.0 -34.003623 -9.537486 94.171198
10780 1 1 0.0 -34.298509 -13.484316 92.625391
10781 1 2 0.0 -28.864539 -17.041663 90.290279
10782 1 2 0.0 -34.595769 -14.667531 90.693242
10783 1 2 0.0 -30.280810 -14.000616 92.225952
10784 1 2 0.0 -33.928887 -11.679980 93.089115
10785 1 2 0.0 -35.437077 -12.868581 93.612680
10786 1 2 0.0 -31.121002 -15.896482 89.173846
10787 1 2 0.0 -33.082952 -14.691576 93.177781
10788 1 2 0.0 -31.061164 -16.726727 91.326391
10789 1 1 0.0 -28.107880 -11.773174 91.320207
10790 1 1 0.0 -29.664781 -12.336728 93.019646
10791 1 1 0.0 -31.090376 -5.942904 94.828366
10792 1 1 0.0 -31.826065 -9.595431 93.026336
10793 1 2 0.0 -26.777638 -12.791753 90.858318
10794 1 2 0.0 -32.301558 -10.716037 91.080364
10795 1 2 0.0 -27.804458 -9.978377 92.877580
10796 1 2 0.0 -31.251285 -7.914749 93.640106
10797 1 2 0.0 -32.914275 -9.034373 93.919399
10798 1 2 0.0 -28.929839 -11.788571 89.783758
10799 1 2 0.0 -30.686009 -10.697210 93.542999
10800 1 2 0.0 -28.905065 -12.562604 91.748918
10801 1 1 0.0 -29.861418 -26.266770 94.527020
10802 1 1 0.0 -31.631668 -27.093105 96.842856
10803 1 1 0.0 -35.178375 -19.651406 97.882590
10804 1 1 0.0 -34.562013 -23.958312 96.761292
10805 1 2 0.0 -28.064777 -27.402082 94.011580
10806 1 2 0.0 -34.374091 -25.125336 94.896239
10807 1 2 0.0 -30.353684 -24.283852 95.834270
10808 1 2 0.0 -34.578515 -21.964854 96.972937
10809 1 2 0.0 -35.937421 -23.433211 97.923490
10810 1 2 0.0 -30.461222 -26.143107 92.925611
10811 1 2 0.0 -33.219433 -25.253384 97.311092
10812 1 2 0.0 -30.538667 -27.234600 95.330275
10813 1 1 0.0 -28.436597 -21.659147 94.249714
10814 1 1 0.0 -30.135514 -22.478299 96.384489
10815 1 1 0.0 -33.055818 -15.401739 97.613013
10816 1 1 0.0 -32.861540 -19.488652 96.291424
10817 1 2 0.0 -26.774705 -22.729368 93.764960
10818 1 2 0.0 -32.897395 -20.603591 94.385160
10819 1 2 0.0 -28.675759 -19.759387 95.633771
10820 1 2 0.0 -32.690612 -17.590357 96.624175
10821 1 2 0.0 -34.158939 -18.990205 97.363844
10822 1 2 0.0 -29.129791 -21.551350 92.645069
10823 1 2 0.0 -31.560534 -20.723738 96.854302
10824 1 2 0.0 -29.148449 -22.601966 94.942920
10825 1 1 0.0 -26.635086 -17.194504 94.341164
10826 1 1 0.0 -28.271826 -18.026275 96.294014
10827 1 1 0.0 -30.548815 -11.374887 97.750115
10828 1 1 0.0 -30.766501 -15.219965 96.226819
10829 1 2 0.0 -25.119033 -18.179839 93.871429
10830 1 2 0.0 -31.002368 -16.275388 94.295939
10831 1 2 0.0 -26.631661 -15.389973 95.797208
10832 1 2 0.0 -30.412751 -13.422603 96.679368
10833 1 2 0.0 -31.985860 -14.767339 97.217743
10834 1 2 0.0 -27.395937 -17.104841 92.756090
10835 1 2 0.0 -29.526109 -16.377678 96.780077
10836 1 2 0.0 -27.383785 -18.118525 94.924468
10837 1 1 0.0 -24.450714 -12.875183 94.807411
10838 1 1 0.0 -26.046576 -13.734387 96.565454
10839 1 1 0.0 -27.648781 -7.575826 98.302976
10840 1 1 0.0 -28.281044 -11.150137 96.563215
10841 1 2 0.0 -23.090466 -13.755953 94.338033
10842 1 2 0.0 -28.694850 -12.138023 94.622686
10843 1 2 0.0 -24.210456 -11.180241 96.335450
10844 1 2 0.0 -27.741418 -9.463455 97.142158
10845 1 2 0.0 -29.427424 -10.759458 97.475504
10846 1 2 0.0 -25.252115 -12.806302 93.266017
10847 1 2 0.0 -27.120967 -12.212854 97.083517
10848 1 2 0.0 -25.245910 -13.783785 95.273703
10849 1 1 0.0 -26.293059 -27.782592 98.072634
10850 1 1 0.0 -28.231706 -28.824662 100.329786
10851 1 1 0.0 -31.898246 -21.735741 101.436513
10852 1 1 0.0 -31.256254 -25.891258 100.260164
10853 1 2 0.0 -24.432047 -28.770710 97.562263
10854 1 2 0.0 -31.012387 -26.945357 98.388013
10855 1 2 0.0 -26.817075 -25.917108 99.397719
10856 1 2 0.0 -31.252650 -23.935855 100.507240
10857 1 2 0.0 -32.748199 -25.500964 101.394505
10858 1 2 0.0 -26.867446 -27.608237 96.474616
10859 1 2 0.0 -29.882046 -27.119431 100.805278
10860 1 2 0.0 -27.041567 -28.827461 98.843187
10861 1 1 0.0 -24.766426 -23.084606 97.853096
10862 1 1 0.0 -26.590631 -24.145138 99.968706
10863 1 1 0.0 -29.659195 -17.395897 101.217795
10864 1 1 0.0 -29.407374 -21.347285 99.880456
10865 1 2 0.0 -23.049923 -24.008252 97.369256
10866 1 2 0.0 -29.383237 -22.339830 97.971372
10867 1 2 0.0 -25.050270 -21.301097 99.239458
10868 1 2 0.0 -29.237480 -19.476356 100.224947
10869 1 2 0.0 -30.802376 -20.996393 100.941157
10870 1 2 0.0 -25.435340 -22.914589 96.249082
10871 1 2 0.0 -28.077361 -22.522937 100.441486
10872 1 2 0.0 -25.524598 -24.116680 98.537126
10873 1 1 0.0 -22.941575 -18.499814 97.925495
10874 1 1 0.0 -24.660029 -19.593845 99.897434
10875 1 1 0.0 -27.108229 -13.236830 101.329031
10876 1 1 0.0 -27.239640 -16.965720 99.828248
10877 1 2 0.0 -21.381675 -19.342200 97.452580
10878 1 2 0.0 -27.413054 -17.892082 97.898637
10879 1 2 0.0 -22.994430 -16.807473 99.368465
10880 1 2 0.0 -26.906673 -15.184196 100.269622
10881 1 2 0.0 -28.536904 -16.670150 100.822806
10882 1 2 0.0 -23.679718 -18.337707 96.338335
10883 1 2 0.0 -25.973604 -18.072652 100.382372
10884 1 2 0.0 -23.711768 -19.523781 98.522546
10885 1 1 0.0 -20.813619 -14.030071 98.294615
10886 1 1 0.0 -22.444606 -15.168700 100.111261
10887 1 1 0.0 -24.238385 -9.262577 101.777586
10888 1 1 0.0 -24.756403 -12.744857 100.100095
10889 1 2 0.0 -19.421597 -14.774477 97.817749
10890 1 2 0.0 -25.106601 -13.599908 98.165007
10891 1 2 0.0 -20.640925 -12.439893 99.793320
10892 1 2 0.0 -24.257384 -11.060885 100.644209
10893 1 2 0.0 -25.959269 -12.518058 101.031609
10894 1 2 0.0 -21.594513 -13.879783 96.748276
10895 1 2 0.0 -23.574604 -13.766706 100.624035
10896 1 2 0.0 -21.604052 -15.048376 98.798488
10897 1 1 0.0 -22.711377 -29.263315 101.618248
10898 1 1 0.0 -24.810585 -30.508443 103.816715
10899 1 1 0.0 -28.600012 -23.788837 104.990435
10900 1 1 0.0 -27.927208 -27.778488 103.759035
10901 1 2 0.0 -20.787985 -30.105703 101.112947
10902 1 2 0.0 -27.628113 -28.716592 101.879787
10903 1 2 0.0 -23.268214 -27.521428 102.961168
10904 1 2 0.0 -27.907035 -25.869604 104.041543
10905 1 2 0.0 -29.530858 -27.518315 104.865521
10906 1 2 0.0 -23.261033 -29.038357 100.023621
10907 1 2 0.0 -26.522119 -28.939376 104.299464
10908 1 2 0.0 -23.527283 -30.377191 102.356099
10909 1 1 0.0 -21.093582 -24.503023 101.456478
10910 1 1 0.0 -23.036671 -25.791486 103.552922
10911 1 1 0.0 -26.260047 -19.385697 104.822578
10912 1 1 0.0 -25.943933 -23.187706 103.469488
10913 1 2 0.0 -19.323271 -25.281587 100.973552
10914 1 2 0.0 -25.859664 -24.055721 101.557583
10915 1 2 0.0 -21.424189 -22.841411 102.845144
10916 1 2 0.0 -25.779094 -21.352444 103.825720
10917 1 2 0.0 -27.432792 -22.979241 104.518470
10918 1 2 0.0 -21.738649 -24.271619 99.853095
10919 1 2 0.0 -24.584926 -24.303191 104.028670
10920 1 2 0.0 -21.894646 -25.616078 102.131331
10921 1 1 0.0 -19.256040 -19.826139 101.509827
10922 1 1 0.0 -21.051241 -21.168210 103.500854
10923 1 1 0.0 -23.680699 -15.121297 104.907947
10924 1 1 0.0 -23.717513 -18.720769 103.429677
10925 1 2 0.0 -17.651911 -20.527097 101.033731
10926 1 2 0.0 -23.827483 -19.516866 101.501335
10927 1 2 0.0 -19.368269 -18.251119 102.939722
10928 1 2 0.0 -23.409836 -16.963222 103.859875
10929 1 2 0.0 -25.090026 -18.576683 104.427869
10930 1 2 0.0 -19.971654 -19.593170 99.920579
10931 1 2 0.0 -22.425114 -19.775840 103.984668
10932 1 2 0.0 -20.044731 -20.941537 102.120624
10933 1 1 0.0 -17.195150 -15.234032 101.781819
10934 1 1 0.0 -18.857729 -16.637093 103.657068
10935 1 1 0.0 -20.856623 -10.998735 105.252196
10936 1 1 0.0 -21.250506 -14.376376 103.636974
10937 1 2 0.0 -15.769785 -15.843622 101.297465
10938 1 2 0.0 -21.535252 -15.098322 101.707328
10939 1 2 0.0 -17.094125 -13.753231 103.251190
10940 1 2 0.0 -20.797088 -12.703091 104.146261
10941 1 2 0.0 -22.508289 -14.307442 104.587713
10942 1 2 0.0 -17.955463 -15.004664 100.230536
10943 1 2 0.0 -20.045534 -15.355929 104.164553
10944 1 2 0.0 -17.978256 -16.353281 102.323272
10945 1 1 0.0 -19.117084 -30.710815 105.163863
10946 1 1 0.0 -21.369401 -32.146928 107.303644
10947 1 1 0.0 -25.284804 -25.812646 108.544358
10948 1 1 0.0 -24.576294 -29.622783 107.257907
10949 1 2 0.0 -17.133156 -31.408742 104.663630
10950 1 2 0.0 -24.222725 -30.442191 105.371561
10951 1 2 0.0 -19.707744 -29.098333 106.524618
10952 1 2 0.0 -24.542885 -27.768390 107.575846
10953 1 2 0.0 -26.287137 -29.488380 108.336537
10954 1 2 0.0 -19.642726 -30.435523 103.572626
10955 1 2 0.0 -23.140903 -30.715772 107.793650
10956 1 2 0.0 -19.996720 -31.886067 105.869011
10957 1 1 0.0 -17.418209 -25.914773 105.059860
10958 1 1 0.0 -19.474108 -27.418406 107.137139
10959 1 1 0.0 -22.858531 -21.371413 108.427361
10960 1 1 0.0 -22.471780 -25.011024 107.058520
10961 1 2 0.0 -15.594842 -26.549650 104.577848
10962 1 2 0.0 -22.327286 -25.752578 105.143795
10963 1 2 0.0 -17.797550 -24.380405 106.450831
10964 1 2 0.0 -22.315777 -23.219232 107.426492
10965 1 2 0.0 -24.050992 -24.940193 108.095783
10966 1 2 0.0 -18.039849 -25.622807 103.457108
10967 1 2 0.0 -21.083742 -26.065551 107.615854
10968 1 2 0.0 -18.258913 -27.100969 105.725536
10969 1 1 0.0 -15.578056 -21.172356 105.094158
10970 1 1 0.0 -17.445305 -22.749016 107.104273
10971 1 1 0.0 -20.265407 -17.026882 108.486863
10972 1 1 0.0 -20.199833 -20.484547 107.031105
10973 1 2 0.0 -13.929362 -21.733405 104.614881
10974 1 2 0.0 -20.245414 -21.149218 105.104033
10975 1 2 0.0 -15.752598 -19.719538 106.510978
10976 1 2 0.0 -19.921673 -18.758609 107.450128
10977 1 2 0.0 -21.645095 -20.486709 108.032932
10978 1 2 0.0 -16.271267 -20.869899 103.502823
10979 1 2 0.0 -18.880417 -21.486786 107.586964
10980 1 2 0.0 -16.382412 -22.371131 105.718702
10981 1 1 0.0 -13.594312 -16.484441 105.269023
10982 1 1 0.0 -15.285163 -18.137796 107.202876
10983 1 1 0.0 -17.501707 -12.781213 108.726806
10984 1 1 0.0 -17.762213 -16.042456 107.173854
10985 1 2 0.0 -12.134177 -16.960863 104.777180
10986 1 2 0.0 -17.979712 -16.630906 105.249650
10987 1 2 0.0 -13.568865 -15.117436 106.709059
10988 1 2 0.0 -17.359070 -14.387319 107.648313
10989 1 2 0.0 -19.073422 -16.125708 108.143818
10990 1 2 0.0 -14.333873 -16.177921 103.712795
10991 1 2 0.0 -16.532797 -16.978564 107.705071
10992 1 2 0.0 -14.367674 -17.696371 105.848057
10993 1 1 0.0 -15.510641 -32.126302 108.709477
10994 1 1 0.0 -17.908857 -33.741700 110.790573
10995 1 1 0.0 -21.953382 -27.808479 112.098280
10996 1 1 0.0 -21.204458 -31.426002 110.756779
10997 1 2 0.0 -13.467917 -32.680886 108.214313
10998 1 2 0.0 -20.797209 -32.124284 108.863335
10999 1 2 0.0 -16.136078 -30.648796 110.088067
11000 1 2 0.0 -21.161012 -29.633749 111.110149
11001 1 2 0.0 -23.018201 -31.413249 111.807552
11002 1 2 0.0 -16.013018 -31.801102 107.121632
11003 1 2 0.0 -19.739212 -32.450287 111.287836
11004 1 2 0.0 -16.450464 -33.355554 109.381923
11005 1 1 0.0 -13.740397 -27.320101 108.663242
11006 1 1 0.0 -15.903241 -29.026578 110.721356
11007 1 1 0.0 -19.454753 -23.353226 112.032143
11008 1 1 0.0 -18.991293 -26.817979 110.647552
11009 1 2 0.0 -11.864697 -27.812616 108.182144
11010 1 2 0.0 -18.786512 -27.431289 108.730006
11011 1 2 0.0 -14.170370 -25.918123 110.056518
11012 1 2 0.0 -18.847745 -25.077127 111.027265
11013 1 2 0.0 -20.657516 -26.880216 111.673096
11014 1 2 0.0 -14.339027 -26.968394 107.061121
11015 1 2 0.0 -17.574146 -27.810700 111.203038
11016 1 2 0.0 -14.617606 -28.571872 109.319742
11017 1 1 0.0 -11.907347 -22.537739 108.678489
11018 1 1 0.0 -13.842123 -24.336038 110.707693
11019 1 1 0.0 -16.861806 -18.952638 112.065779
11020 1 1 0.0 -16.686405 -22.256676 110.632534
11021 1 2 0.0 -10.213787 -22.960415 108.196032
11022 1 2 0.0 -16.666682 -22.788784 108.706730
11023 1 2 0.0 -12.147044 -21.211849 110.082235
11024 1 2 0.0 -16.441804 -20.569638 111.040382
11025 1 2 0.0 -18.202027 -22.400072 111.637995
11026 1 2 0.0 -12.578237 -22.167015 107.085068
11027 1 2 0.0 -15.339367 -23.205194 111.189259
11028 1 2 0.0 -12.724640 -23.812139 109.316780
11029 1 1 0.0 -10.010462 -17.779607 108.756227
11030 1 1 0.0 -11.726406 -19.669680 110.748683
11031 1 1 0.0 -14.172434 -14.607935 112.201416
11032 1 1 0.0 -14.290761 -17.741600 110.710733
11033 1 2 0.0 -8.514237 -18.124602 108.256896
11034 1 2 0.0 -14.439242 -18.196064 108.791971
11035 1 2 0.0 -10.064379 -16.530701 110.166929
11036 1 2 0.0 -13.942353 -16.111724 111.150364
11037 1 2 0.0 -15.653955 -17.971579 111.699923
11038 1 2 0.0 -10.729021 -17.397552 107.195054
11039 1 2 0.0 -13.035770 -18.633332 111.245589
11040 1 2 0.0 -10.771761 -19.076277 109.372842
11041 1 1 0.0 -11.892293 -33.510429 112.255092
11042 1 1 0.0 -14.429320 -35.293589 114.277503
11043 1 1 0.0 -18.606205 -29.777128 115.652203
11044 1 1 0.0 -17.812261 -33.189249 114.255651
11045 1 2 0.0 -9.792448 -33.922666 111.764996
11046 1 2 0.0 -17.352171 -33.764182 112.355109
11047 1 2 0.0 -12.553434 -32.173333 113.651516
11048 1 2 0.0 -17.761903 -31.466598 114.644452
11049 1 2 0.0 -19.724751 -33.294175 115.278568
11050 1 2 0.0 -12.372195 -33.135886 110.670637
11051 1 2 0.0 -16.317499 -34.143848 114.782022
11052 1 2 0.0 -12.888825 -34.786433 112.894835
11053 1 1 0.0 -10.060197 -28.719137 112.266623
11054 1 1 0.0 -12.324227 -30.616358 114.305572
11055 1 1 0.0 -16.048778 -25.331247 115.636926
11056 1 1 0.0 -15.502695 -28.609012 114.236584
11057 1 2 0.0 -8.132864 -29.070573 111.786440
11058 1 2 0.0 -15.237596 -29.092400 112.316217
11059 1 2 0.0 -10.542662 -27.454592 113.662204
11060 1 2 0.0 -15.375128 -26.926374 114.628037
11061 1 2 0.0 -17.252687 -28.799890 115.250409
11062 1 2 0.0 -10.636234 -28.308521 110.665134
11063 1 2 0.0 -14.056321 -29.539021 114.790222
11064 1 2 0.0 -10.970838 -30.029065 112.913947
11065 1 1 0.0 -8.243765 -23.921899 112.262820
11066 1 1 0.0 -10.241642 -25.929158 114.311113
11067 1 1 0.0 -13.469565 -20.897993 115.644695
11068 1 1 0.0 -13.177117 -24.036931 114.233962
11069 1 2 0.0 -6.505068 -24.207769 111.777182
11070 1 2 0.0 -13.091187 -24.435347 112.309428
11071 1 2 0.0 -8.551409 -22.727585 113.653492
11072 1 2 0.0 -12.970000 -22.395880 114.630635
11073 1 2 0.0 -14.760769 -24.316682 115.243058
11074 1 2 0.0 -8.892381 -23.484005 110.667312
11075 1 2 0.0 -11.801885 -24.930898 114.791555
11076 1 2 0.0 -9.071325 -25.264336 112.914858
11077 1 1 0.0 -6.443254 -19.118619 112.243431
11078 1 1 0.0 -8.181198 -21.232153 114.294490
11079 1 1 0.0 -10.868078 -16.477649 115.676026
11080 1 1 0.0 -10.835697 -19.472919 114.247613
11081 1 2 0.0 -4.909695 -19.334041 111.736611
11082 1 2 0.0 -10.913390 -19.792816 112.334292
11083 1 2 0.0 -6.580260 -17.992066 113.624799
11084 1 2 0.0 -10.546353 -17.875204 114.652416
11085 1 2 0.0 -12.249462 -19.844290 115.256028
11086 1 2 0.0 -7.140486 -18.662391 110.677313
11087 1 2 0.0 -9.554103 -20.319521 114.786107
11088 1 2 0.0 -7.190227 -20.492270 112.897627
11089 1 1 0.0 -8.262099 -34.863342 115.800706
11090 1 1 0.0 -10.930853 -36.802736 117.764432
11091 1 1 0.0 -15.243470 -31.718934 119.206125
11092 1 1 0.0 -14.399932 -34.912968 117.754522
11093 1 2 0.0 -6.106764 -35.134130 115.315680
11094 1 2 0.0 -13.887889 -35.362485 115.846883
11095 1 2 0.0 -8.959855 -33.672046 117.214965
11096 1 2 0.0 -14.345761 -33.267316 118.178755
11097 1 2 0.0 -16.407080 -35.131685 118.749584
11098 1 2 0.0 -8.720362 -34.440164 114.219642
11099 1 2 0.0 -12.875894 -35.796719 118.276208
11100 1 2 0.0 -9.311866 -36.178862 116.407748
11101 1 1 0.0 -6.377620 -30.111910 115.870005
11102 1 1 0.0 -8.737095 -32.187806 117.889789
11103 1 1 0.0 -12.640633 -27.305524 119.241708
11104 1 1 0.0 -12.006077 -30.384299 117.825616
11105 1 2 0.0 -4.399345 -30.323529 115.390736
11106 1 2 0.0 -11.680654 -30.736164 115.902429
11107 1 2 0.0 -6.914426 -28.989816 117.267891
11108 1 2 0.0 -11.897980 -28.767073 118.228810
11109 1 2 0.0 -13.836643 -30.699460 118.827722
11110 1 2 0.0 -6.931489 -29.643239 114.269147
11111 1 2 0.0 -10.530322 -31.250621 118.377406
11112 1 2 0.0 -7.318629 -31.472604 116.508152
11113 1 1 0.0 -4.587276 -25.324748 115.847152
11114 1 1 0.0 -6.643853 -27.528357 117.914533
11115 1 1 0.0 -10.088541 -22.862704 119.223612
11116 1 1 0.0 -9.671922 -25.825221 117.835391
11117 1 2 0.0 -2.803193 -25.475437 115.358333
11118 1 2 0.0 -9.518884 -26.088808 115.912126
11119 1 2 0.0 -4.965655 -24.266656 117.224748
11120 1 2 0.0 -9.506167 -24.237157 118.220888
11121 1 2 0.0 -11.321301 -26.236498 118.848121
11122 1 2 0.0 -5.213630 -24.820683 114.249556
11123 1 2 0.0 -8.267946 -26.663851 118.393850
11124 1 2 0.0 -5.422450 -26.727674 116.512935
11125 1 1 0.0 -2.892610 -20.501269 115.730636
11126 1 1 0.0 -4.649492 -22.825113 117.840298
11127 1 1 0.0 -7.588327 -18.389816 119.150637
11128 1 1 0.0 -7.396840 -21.236055 117.784493
11129 1 2 0.0 -1.320527 -20.589108 115.216327
11130 1 2 0.0 -7.401945 -21.420711 115.876614
11131 1 2 0.0 -3.116430 -19.501346 117.082669
11132 1 2 0.0 -7.170826 -19.677302 118.154468
11133 1 2 0.0 -8.859762 -21.743519 118.812132
11134 1 2 0.0 -3.568115 -19.972015 114.159573
11135 1 2 0.0 -6.087700 -22.036929 118.326625
11136 1 2 0.0 -3.623011 -21.944199 116.422411
11137 1 1 0.0 -4.619926 -36.184697 119.346320
11138 1 1 0.0 -7.413220 -38.268609 121.251361
11139 1 1 0.0 -11.865129 -33.633813 122.760048
11140 1 1 0.0 -10.967378 -36.596982 121.253394
11141 1 2 0.0 -2.410720 -36.314846 118.866363
11142 1 2 0.0 -10.404338 -36.919137 119.338657
11143 1 2 0.0 -5.355210 -35.144627 120.778414
11144 1 2 0.0 -10.912516 -35.035777 121.713058
11145 1 2 0.0 -13.065098 -36.925618 122.220599
11146 1 2 0.0 -5.057449 -35.713745 117.768647
11147 1 2 0.0 -9.414211 -37.408522 121.770394
11148 1 2 0.0 -5.719410 -37.532396 119.920660
11149 1 1 0.0 -2.692639 -31.498352 119.473387
11150 1 1 0.0 -5.141742 -33.740694 121.474006
11151 1 1 0.0 -9.230311 -29.276046 122.846491
11152 1 1 0.0 -8.501403 -32.143769 121.414648
11153 1 2 0.0 -0.664117 -31.571412 118.995032
11154 1 2 0.0 -8.115674 -32.362555 119.488640
11155 1 2 0.0 -3.285657 -30.523780 120.873578
11156 1 2 0.0 -8.416282 -30.599191 121.829582
11157 1 2 0.0 -10.409341 -32.578850 122.405036
11158 1 2 0.0 -3.224780 -30.972514 117.873160
11159 1 2 0.0 -6.996074 -32.945345 121.964590
11160 1 2 0.0 -3.660917 -32.902331 120.102358
11161 1 1 0.0 -0.937959 -26.746491 119.431483
11162 1 1 0.0 -3.048789 -29.133710 121.517952
11163 1 1 0.0 -6.718770 -24.846830 122.802528
11164 1 1 0.0 -6.170839 -27.621585 121.436820
11165 1 2 0.0 0.891740 -26.763708 118.939484
11166 1 2 0.0 -5.949776 -27.749175 119.514823
11167 1 2 0.0 -1.389900 -25.829341 120.796005
11168 1 2 0.0 -6.050337 -26.093530 121.811141
11169 1 2 0.0 -7.883628 -28.159532 122.453184
11170 1 2 0.0 -1.542030 -26.177172 117.831800
11171 1 2 0.0 -4.737585 -28.404121 121.996146
11172 1 2 0.0 -1.778066 -28.202283 120.111013
11173 1 1 0.0 0.641287 -21.928041 119.217840
11174 1 1 0.0 -1.131459 -24.448942 121.386105
11175 1 1 0.0 -4.333258 -20.344571 122.625247
11176 1 1 0.0 -3.974262 -23.031154 121.321372
11177 1 2 0.0 2.253048 -21.890453 118.696043
11178 1 2 0.0 -3.904928 -23.079791 119.418935
11179 1 2 0.0 0.326870 -21.059112 120.540539
11180 1 2 0.0 -3.815855 -21.518172 121.656520
11181 1 2 0.0 -5.484912 -23.669364 122.368237
11182 1 2 0.0 -0.012011 -21.326705 117.641832
11183 1 2 0.0 -2.636700 -23.785846 121.867144
11184 1 2 0.0 -0.070280 -23.432484 119.947196
11185 1 1 0.0 -0.965445 -37.473627 122.891935
11186 1 1 0.0 -3.875865 -39.689954 124.738291
11187 1 1 0.0 -8.470882 -35.521249 126.313971
11188 1 1 0.0 -7.514183 -38.240471 124.752266
11189 1 2 0.0 1.296005 -37.463865 122.417046
11190 1 2 0.0 -6.901183 -38.433415 122.830431
11191 1 2 0.0 -1.739186 -36.590334 124.341864
11192 1 2 0.0 -7.461826 -36.771334 125.247361
11193 1 2 0.0 -9.698325 -38.675115 125.691615
11194 1 2 0.0 -1.383207 -36.955939 121.317652
11195 1 2 0.0 -5.931937 -38.978206 125.264580
11196 1 2 0.0 -2.111022 -38.845944 123.433572
11197 1 1 0.0 0.994810 -32.878287 123.076769
11198 1 1 0.0 -1.537931 -35.274484 125.058222
11199 1 1 0.0 -5.817770 -31.242739 126.451273
11200 1 1 0.0 -4.988507 -33.887096 125.003680
11201 1 2 0.0 3.072872 -32.814066 122.599328
11202 1 2 0.0 -4.542518 -33.971272 123.074852
11203 1 2 0.0 0.343661 -32.056448 124.479264
11204 1 2 0.0 -4.929944 -32.422555 125.430355
11205 1 2 0.0 -6.970559 -34.437663 125.982349
11206 1 2 0.0 0.483938 -32.296224 121.477174
11207 1 2 0.0 -3.453364 -34.622763 125.551774
11208 1 2 0.0 0.002453 -34.317859 123.696563
11209 1 1 0.0 2.703989 -28.187647 123.015814
11210 1 1 0.0 0.543470 -30.745395 125.121372
11211 1 1 0.0 -3.360467 -26.850743 126.381444
11212 1 1 0.0 -2.673952 -29.426186 125.038248
11213 1 2 0.0 4.579517 -28.073218 122.520634
11214 1 2 0.0 -2.383918 -29.416569 123.117521
11215 1 2 0.0 2.175573 -27.416307 124.367262
11216 1 2 0.0 -2.602671 -27.965300 125.401395
11217 1 2 0.0 -4.447785 -30.085849 126.058247
11218 1 2 0.0 2.122258 -27.553918 121.414045
11219 1 2 0.0 -1.210892 -30.151894 125.598441
11220 1 2 0.0 1.861701 -29.688480 123.709091
11221 1 1 0.0 4.157977 -23.400145 122.705044
11222 1 1 0.0 2.372508 -26.104533 124.931913
11223 1 1 0.0 -1.103344 -22.342727 126.099857
11224 1 1 0.0 -0.568299 -24.858872 124.858252
11225 1 2 0.0 5.810549 -23.239505 122.175758
11226 1 2 0.0 -0.422590 -24.770598 122.961256
11227 1 2 0.0 3.749057 -22.666738 123.998408
11228 1 2 0.0 -0.481851 -23.398590 125.158571
11229 1 2 0.0 -2.125203 -25.622351 125.924342
11230 1 2 0.0 3.527463 -22.727473 121.124091
11231 1 2 0.0 0.798502 -25.567078 125.407662
11232 1 2 0.0 3.467560 -24.958142 123.471981
11233 1 1 0.0 2.701896 -38.728673 126.437549
11234 1 1 0.0 -0.317868 -41.064694 128.225220
11235 1 1 0.0 -5.060158 -37.380253 129.867893
11236 1 1 0.0 -4.039572 -39.841913 128.251138
11237 1 2 0.0 5.013929 -38.579642 125.967729
11238 1 2 0.0 -3.377755 -39.903876 126.322205
11239 1 2 0.0 1.888740 -38.007932 127.905313
11240 1 2 0.0 -3.993048 -38.472771 128.781664
11241 1 2 0.0 -6.305853 -40.378546 129.162631
11242 1 2 0.0 2.302811 -38.165504 124.866657
11243 1 2 0.0 -2.428188 -40.503962 128.758766
11244 1 2 0.0 1.514026 -40.117679 126.946484
11245 1 1 0.0 4.684841 -34.251425 126.680150
11246 1 1 0.0 2.074733 -36.788285 128.642439
11247 1 1 0.0 -2.402931 -33.205467 130.056056
11248 1 1 0.0 -1.467079 -35.613674 128.592712
11249 1 2 0.0 6.811710 -34.051236 126.203624
11250 1 2 0.0 -0.960907 -35.561714 126.661063
11251 1 2 0.0 3.973553 -33.587762 128.084951
11252 1 2 0.0 -1.438793 -34.236843 129.031127
11253 1 2 0.0 -3.519877 -36.275144 129.559662
11254 1 2 0.0 4.194744 -33.614148 125.081187
11255 1 2 0.0 0.098171 -36.282129 129.138958
11256 1 2 0.0 3.671739 -35.718538 127.290768
11257 1 1 0.0 6.338237 -29.649091 126.600145
11258 1 1 0.0 4.132794 -32.363707 128.724792
11259 1 1 0.0 -0.014045 -28.875156 129.960360
11260 1 1 0.0 0.818581 -31.239336 128.639677
11261 1 2 0.0 8.259789 -29.405001 126.101785
11262 1 2 0.0 1.178577 -31.091229 126.720219
11263 1 2 0.0 5.730292 -29.028673 127.938519
11264 1 2 0.0 0.836531 -29.853036 128.991648
11265 1 2 0.0 -1.013841 -32.015568 129.663310
11266 1 2 0.0 5.778946 -28.951722 124.996289
11267 1 2 0.0 2.311976 -31.907493 129.200737
11268 1 2 0.0 5.496640 -31.186794 127.307169
11269 1 1 0.0 7.656686 -24.919622 126.192248
11270 1 1 0.0 5.861750 -27.793369 128.477720
11271 1 1 0.0 2.100509 -24.385850 129.574467
11272 1 1 0.0 2.820424 -26.720437 128.395131
11273 1 2 0.0 9.351192 -24.638588 125.655474
11274 1 2 0.0 3.044570 -26.494213 126.503578
11275 1 2 0.0 7.149159 -24.326517 127.456278
11276 1 2 0.0 2.830411 -25.320018 128.660623
11277 1 2 0.0 1.218809 -27.603474 129.480446
11278 1 2 0.0 7.049647 -24.176143 124.606350
11279 1 2 0.0 4.217227 -27.382013 128.948180
11280 1 2 0.0 6.989828 -26.522882 126.996766
11281 1 1 0.0 6.382930 -39.947648 129.983163
11282 1 1 0.0 3.262140 -42.389734 131.712149
11283 1 1 0.0 -1.632057 -39.209277 133.421816
11284 1 1 0.0 -0.542338 -41.398942 131.750009
11285 1 2 0.0 8.743825 -39.659891 129.518412
11286 1 2 0.0 0.167005 -41.328227 129.813979
11287 1 2 0.0 5.529351 -39.395574 131.468762
11288 1 2 0.0 -0.505175 -40.138193 132.315967
11289 1 2 0.0 -2.886264 -42.033370 132.633646
11290 1 2 0.0 6.001295 -39.340534 128.415662
11291 1 2 0.0 1.098373 -41.983056 132.252952
11292 1 2 0.0 5.156821 -41.344872 130.459396
11293 1 1 0.0 8.377618 -35.617325 130.283532
11294 1 1 0.0 5.696838 -38.280770 132.226656
11295 1 1 0.0 1.014332 -35.164012 133.660839
11296 1 1 0.0 2.063360 -37.322559 132.181743
11297 1 2 0.0 10.552522 -35.282544 129.807920
11298 1 2 0.0 2.629603 -37.132924 130.247275
11299 1 2 0.0 7.604056 -35.117631 131.690638
11300 1 2 0.0 2.057437 -36.041550 132.631900
11301 1 2 0.0 -0.056637 -38.090117 133.136975
11302 1 2 0.0 7.907761 -34.925949 128.685200
11303 1 2 0.0 3.659080 -37.922320 132.726142
11304 1 2 0.0 7.347327 -37.103401 130.884974
11305 1 1 0.0 9.964287 -31.132132 130.184477
11306 1 1 0.0 7.718987 -33.989087 132.328212
11307 1 1 0.0 3.319848 -30.921187 133.539276
11308 1 1 0.0 4.306515 -33.061515 132.241105
11309 1 2 0.0 11.932040 -30.760591 129.682935
11310 1 2 0.0 4.737536 -32.773535 130.322917
11311 1 2 0.0 9.273549 -30.668106 131.509775
11312 1 2 0.0 4.266798 -31.757626 132.581901
11313 1 2 0.0 2.418100 -33.948877 133.268373
11314 1 2 0.0 9.427590 -30.371814 128.578533
11315 1 2 0.0 5.830779 -33.671406 132.803032
11316 1 2 0.0 9.126437 -32.698015 130.905247
11317 1 1 0.0 11.136252 -26.489530 129.679452
11318 1 1 0.0 9.335291 -29.517655 132.023527
11319 1 1 0.0 5.276880 -26.476389 133.049077
11320 1 1 0.0 6.190938 -28.617751 131.932011
11321 1 2 0.0 12.873819 -26.091145 129.135189
11322 1 2 0.0 6.495757 -28.252353 130.045899
11323 1 2 0.0 10.525728 -26.041876 130.914148
11324 1 2 0.0 6.119724 -27.284733 132.162675
11325 1 2 0.0 4.546258 -29.614285 133.036551
11326 1 2 0.0 10.553532 -25.675513 128.088610
11327 1 2 0.0 7.618450 -29.232749 132.488698
11328 1 2 0.0 10.495509 -28.129254 130.521550
11329 1 1 0.0 10.078846 -41.127412 133.528778
11330 1 1 0.0 6.866125 -43.660639 135.199078
11331 1 1 0.0 1.814729 -41.006060 136.975738
11332 1 1 0.0 2.979266 -42.908123 135.248881
11333 1 2 0.0 12.486793 -40.701342 133.069096
11334 1 2 0.0 3.734653 -42.703107 133.305753
11335 1 2 0.0 9.183766 -40.750615 135.032211
11336 1 2 0.0 3.003253 -41.764843 135.850270
11337 1 2 0.0 0.562508 -43.635887 136.104662
11338 1 2 0.0 9.713239 -40.478268 131.964668
11339 1 2 0.0 4.649671 -43.411551 135.747138
11340 1 2 0.0 8.818924 -42.523607 133.972308
11341 1 1 0.0 12.073381 -36.975358 133.886914
11342 1 1 0.0 9.329227 -39.750036 135.810872
11343 1 1 0.0 4.434201 -37.118061 137.265621
11344 1 1 0.0 5.603508 -39.012385 135.770775
11345 1 2 0.0 14.295491 -36.507452 133.412216
11346 1 2 0.0 6.229658 -38.683500 133.833486
11347 1 2 0.0 11.235225 -36.645929 135.296325
11348 1 2 0.0 5.559135 -37.835943 136.232672
11349 1 2 0.0 3.420115 -39.880868 136.714288
11350 1 2 0.0 11.623164 -36.231137 132.289213
11351 1 2 0.0 7.230154 -39.541719 136.313326
11352 1 2 0.0 11.029771 -38.471055 134.479179
11353 1 1 0.0 13.581427 -32.638649 133.768808
11354 1 1 0.0 11.301771 -35.622166 135.931631
11355 1 1 0.0 6.640268 -32.990463 137.118192
11356 1 1 0.0 7.789494 -34.893422 135.842534
11357 1 2 0.0 15.595532 -32.142176 133.264086
11358 1 2 0.0 8.292698 -34.464045 133.925614
11359 1 2 0.0 12.804332 -32.336998 135.081032
11360 1 2 0.0 7.687445 -33.680359 136.172155
11361 1 2 0.0 5.847885 -35.886049 136.873436
11362 1 2 0.0 13.067546 -31.815976 132.160778
11363 1 2 0.0 9.345175 -35.444333 136.405328
11364 1 2 0.0 12.750639 -34.223278 134.503325
11365 1 1 0.0 14.595011 -28.114259 133.166656
11366 1 1 0.0 12.791729 -31.280557 135.569335
11367 1 1 0.0 8.423700 -28.617916 136.523687
11368 1 1 0.0 9.541834 -30.553580 135.468890
11369 1 2 0.0 16.376770 -27.602095 132.614905
11370 1 2 0.0 9.929807 -30.047532 133.588220
11371 1 2 0.0 13.876684 -27.817722 134.372018
11372 1 2 0.0 9.384331 -29.296048 135.664726
11373 1 2 0.0 7.855883 -31.657045 136.592656
11374 1 2 0.0 14.037656 -27.229636 131.570869
11375 1 2 0.0 11.000694 -31.122306 136.029216
11376 1 2 0.0 13.983143 -29.780919 134.046335
11377 1 1 0.0 13.791342 -42.263495 137.074392
11378 1 1 0.0 10.496884 -44.871093 138.686008
11379 1 1 0.0 5.282066 -42.767386 140.529661
11380 1 1 0.0 6.527734 -44.364565 138.747753
11381 1 2 0.0 16.244404 -41.699335 136.619779
11382 1 2 0.0 7.327405 -44.023725 136.797527
11383 1 2 0.0 12.853582 -42.069285 138.595660
11384 1 2 0.0 6.534318 -43.348795 139.384573
11385 1 2 0.0 4.043402 -45.180822 139.575678
11386 1 2 0.0 13.440062 -41.574779 135.513673
11387 1 2 0.0 8.228444 -44.783846 139.241324
11388 1 2 0.0 12.502555 -43.648308 137.485220
11389 1 1 0.0 15.772471 -38.324627 137.490296
11390 1 1 0.0 12.973098 -41.193376 139.395089
11391 1 1 0.0 7.856937 -39.067164 140.870404
11392 1 1 0.0 9.154356 -40.681202 139.359807
11393 1 2 0.0 18.040875 -37.725191 137.016512
11394 1 2 0.0 9.840184 -40.211444 137.419698
11395 1 2 0.0 14.867135 -38.172474 138.902011
11396 1 2 0.0 9.066856 -39.618978 139.833445
11397 1 2 0.0 6.911743 -41.644955 140.291601
11398 1 2 0.0 15.341205 -37.529016 135.893226
11399 1 2 0.0 10.812518 -41.138025 139.900510
11400 1 2 0.0 14.719860 -39.819522 138.073384
11401 1 1 0.0 17.188639 -34.171319 137.353139
11402 1 1 0.0 14.880747 -37.263841 139.535051
11403 1 1 0.0 9.945871 -35.085305 140.697109
11404 1 1 0.0 11.267012 -36.736050 139.443962
11405 1 2 0.0 19.249213 -33.552881 136.845236
11406 1 2 0.0 11.843698 -36.163552 137.528312
11407 1 2 0.0 16.321199 -34.038754 138.652289
11408 1 2 0.0 11.097500 -35.623073 139.762408
11409 1 2 0.0 9.275299 -37.827474 140.478499
11410 1 2 0.0 16.697899 -33.286744 135.743022
11411 1 2 0.0 12.854676 -37.227272 140.007623
11412 1 2 0.0 16.368602 -35.764199 138.101402
11413 1 1 0.0 18.030590 -29.800057 136.653860
11414 1 1 0.0 16.229070 -33.086579 139.115142
11415 1 1 0.0 11.538018 -30.815522 139.998297
11416 1 1 0.0 12.871107 -32.531862 139.005770
11417 1 2 0.0 19.857682 -29.178453 136.094620
11418 1 2 0.0 13.345061 -31.883341 137.130542
11419 1 2 0.0 17.199066 -29.661051 137.829888
11420 1 2 0.0 12.621729 -31.358684 139.166778
11421 1 2 0.0 11.145888 -33.734975 140.148761
11422 1 2 0.0 17.499935 -28.844278 135.053128
11423 1 2 0.0 14.361858 -33.054981 139.569734
11424 1 2 0.0 17.450655 -31.483087 137.571120
11425 1 1 0.0 -37.946778 -16.952017 97.877957
11426 1 1 0.0 -39.631319 -17.192551 100.252479
11427 1 1 0.0 -41.309183 -8.859921 101.225219
11428 1 1 0.0 -41.681835 -13.326869 100.158972
11429 1 2 0.0 -36.533223 -18.578145 97.357449
11430 1 2 0.0 -41.827971 -14.601624 98.301017
11431 1 2 0.0 -37.947590 -14.808043 99.167373
11432 1 2 0.0 -41.286579 -11.343115 100.335185
11433 1 2 0.0 -42.763135 -12.407867 101.349026
11434 1 2 0.0 -38.542298 -16.746060 96.273158
11435 1 2 0.0 -40.695247 -14.938517 100.713457
11436 1 2 0.0 -38.724188 -17.684184 98.713915
11437 1 1 0.0 -35.701330 -12.851838 97.542884
11438 1 1 0.0 -37.352547 -13.065184 99.696824
11439 1 1 0.0 -38.478729 -5.253877 100.904782
11440 1 1 0.0 -39.242491 -9.393866 99.598944
11441 1 2 0.0 -34.394407 -14.387112 97.057216
11442 1 2 0.0 -39.601374 -10.579339 97.695501
11443 1 2 0.0 -35.461382 -10.846615 98.924636
11444 1 2 0.0 -38.666794 -7.558060 99.919954
11445 1 2 0.0 -40.270167 -8.500448 100.683083
11446 1 2 0.0 -36.392856 -12.653829 95.937608
11447 1 2 0.0 -38.278452 -10.930897 100.163670
11448 1 2 0.0 -36.529273 -13.534473 98.245267
11449 1 1 0.0 -33.048501 -9.018230 97.653385
11450 1 1 0.0 -34.681069 -9.226314 99.587146
11451 1 1 0.0 -35.258915 -2.004731 101.067750
11452 1 1 0.0 -36.395358 -5.795895 99.521943
11453 1 2 0.0 -31.853156 -10.438216 97.186831
11454 1 2 0.0 -36.940025 -6.887544 97.589794
11455 1 2 0.0 -32.582580 -7.163811 99.122503
11456 1 2 0.0 -35.646499 -4.113201 99.985667
11457 1 2 0.0 -37.374942 -4.949797 100.509232
11458 1 2 0.0 -33.810684 -8.834736 96.070398
11459 1 2 0.0 -35.467746 -7.236238 100.074333
11460 1 2 0.0 -33.930723 -9.658434 98.222942
11461 1 1 0.0 -29.981618 -5.455561 98.216759
11462 1 1 0.0 -31.623266 -5.671251 99.916198
11463 1 1 0.0 -31.641049 0.879549 101.724917
11464 1 1 0.0 -33.144724 -2.529432 99.922887
11465 1 2 0.0 -28.901441 -6.736288 97.754870
11466 1 2 0.0 -33.849997 -3.521622 97.976916
11467 1 2 0.0 -29.299461 -3.767951 99.774132
11468 1 2 0.0 -32.222085 -1.011604 100.536658
11469 1 2 0.0 -34.086881 -1.747558 100.815951
11470 1 2 0.0 -30.787670 -5.293900 96.680310
11471 1 2 0.0 -32.268172 -3.850530 100.439550
11472 1 2 0.0 -30.929869 -6.055163 98.645470
11473 1 1 0.0 -34.809854 -19.233345 101.423571
11474 1 1 0.0 -36.716354 -19.659810 103.739408
11475 1 1 0.0 -38.580395 -11.629656 104.779142
11476 1 1 0.0 -38.904302 -15.968368 103.657844
11477 1 2 0.0 -33.299276 -20.728340 100.908132
11478 1 2 0.0 -38.971648 -17.148506 101.792791
11479 1 2 0.0 -34.864342 -17.190964 102.730822
11480 1 2 0.0 -38.491883 -14.017969 103.869488
11481 1 2 0.0 -40.134672 -15.159872 104.820041
11482 1 2 0.0 -35.369051 -18.983633 99.822163
11483 1 2 0.0 -37.871513 -17.521778 104.207643
11484 1 2 0.0 -35.679324 -20.032960 102.226827
11485 1 1 0.0 -32.427841 -15.039741 101.146266
11486 1 1 0.0 -34.263133 -15.474524 103.281041
11487 1 1 0.0 -35.593910 -7.935631 104.509564
11488 1 1 0.0 -36.282740 -11.968759 103.187976
11489 1 2 0.0 -31.034870 -16.442198 100.661512
11490 1 2 0.0 -36.557435 -13.049923 101.281712
11491 1 2 0.0 -32.253020 -13.132983 102.530323
11492 1 2 0.0 -35.707731 -10.151589 103.520726
11493 1 2 0.0 -37.442655 -11.203062 104.260396
11494 1 2 0.0 -33.081656 -14.785447 99.541621
11495 1 2 0.0 -35.277658 -13.454646 103.750854
11496 1 2 0.0 -33.325729 -15.807490 101.839472
11497 1 1 0.0 -29.708683 -11.066750 101.237716
11498 1 1 0.0 -31.485963 -11.527224 103.190566
11499 1 1 0.0 -32.279865 -4.541857 104.646666
11500 1 1 0.0 -33.319040 -8.250243 103.123371
11501 1 2 0.0 -28.439892 -12.354955 100.767981
11502 1 2 0.0 -33.776277 -9.230286 101.192491
11503 1 2 0.0 -29.317417 -9.305144 102.693760
11504 1 2 0.0 -32.587181 -6.570948 103.575920
11505 1 2 0.0 -34.412590 -7.546072 104.114295
11506 1 2 0.0 -30.432471 -10.815622 99.652642
11507 1 2 0.0 -32.356522 -9.647536 103.676629
11508 1 2 0.0 -30.638515 -11.808220 101.821020
11509 1 1 0.0 -26.646853 -7.317987 101.703963
11510 1 1 0.0 -28.390109 -7.814040 103.462005
11511 1 1 0.0 -28.630947 -1.455037 105.199527
11512 1 1 0.0 -30.016799 -4.809865 103.459767
11513 1 2 0.0 -25.507747 -8.470579 101.234585
11514 1 2 0.0 -30.633296 -5.685698 101.519238
11515 1 2 0.0 -26.047851 -5.714320 103.232002
11516 1 2 0.0 -29.127202 -3.278620 104.038709
11517 1 2 0.0 -31.052392 -4.181882 104.372056
11518 1 2 0.0 -27.414711 -7.078440 100.162569
11519 1 2 0.0 -29.112297 -6.097118 103.980068
11520 1 2 0.0 -27.618781 -8.034403 102.170255
11521 1 1 0.0 -31.650777 -21.480820 104.969186
11522 1 1 0.0 -33.768115 -22.081775 107.226337
11523 1 1 0.0 -35.825025 -14.370392 108.333064
11524 1 1 0.0 -36.091355 -18.566764 107.156715
11525 1 2 0.0 -30.045692 -22.845899 104.458815
11526 1 2 0.0 -36.079790 -19.648643 105.284565
11527 1 2 0.0 -31.761519 -19.546302 106.294271
11528 1 2 0.0 -35.667482 -16.657852 107.403791
11529 1 2 0.0 -37.464517 -17.864871 108.291057
11530 1 2 0.0 -32.174255 -21.187066 103.371168
11531 1 2 0.0 -35.013296 -20.061638 107.701829
11532 1 2 0.0 -32.606403 -22.340354 105.739739
11533 1 1 0.0 -29.149909 -17.220851 104.749648
11534 1 1 0.0 -31.159447 -17.864438 106.865257
11535 1 1 0.0 -32.705383 -10.613340 108.114347
11536 1 1 0.0 -33.308882 -14.526481 106.777008
11537 1 2 0.0 -27.672093 -18.491900 104.265808
11538 1 2 0.0 -33.498676 -15.501010 104.867923
11539 1 2 0.0 -29.043714 -15.418021 106.136009
11540 1 2 0.0 -32.740765 -12.735815 107.121499
11541 1 2 0.0 -34.595837 -13.883909 107.837709
11542 1 2 0.0 -29.766635 -16.911012 103.145634
11543 1 2 0.0 -32.262694 -15.960560 107.338038
11544 1 2 0.0 -30.112221 -18.065812 105.433678
11545 1 1 0.0 -26.382127 -13.135538 104.822047
11546 1 1 0.0 -28.295589 -13.834575 106.793986
11547 1 1 0.0 -29.319981 -7.099892 108.225582
11548 1 1 0.0 -30.249921 -10.713354 106.724800
11549 1 2 0.0 -25.039785 -14.293562 104.349132
11550 1 2 0.0 -30.618421 -11.580779 104.795189
11551 1 2 0.0 -26.069943 -11.471401 106.265017
11552 1 2 0.0 -29.541763 -9.045059 107.166173
11553 1 2 0.0 -31.453317 -10.145820 107.719358
11554 1 2 0.0 -27.068165 -12.818542 103.234886
11555 1 2 0.0 -29.251441 -12.066567 107.278924
11556 1 2 0.0 -27.354436 -13.969997 105.419098
11557 1 1 0.0 -23.343059 -9.227743 105.191167
11558 1 1 0.0 -25.180686 -9.989138 107.007813
11559 1 1 0.0 -25.662885 -3.835487 108.674138
11560 1 1 0.0 -26.917380 -7.124994 106.996646
11561 1 2 0.0 -22.143607 -10.253988 104.714301
11562 1 2 0.0 -27.443201 -7.884773 105.061559
11563 1 2 0.0 -22.832560 -7.711866 106.689872
11564 1 2 0.0 -26.068023 -5.587667 107.540761
11565 1 2 0.0 -28.043368 -6.644917 107.928160
11566 1 2 0.0 -24.073389 -8.913100 103.644828
11567 1 2 0.0 -25.982878 -8.377005 107.520587
11568 1 2 0.0 -24.333917 -10.052321 105.695039
11569 1 1 0.0 -28.471145 -23.696881 108.514800
11570 1 1 0.0 -30.788940 -24.461630 110.713267
11571 1 1 0.0 -33.045257 -17.084510 111.886987
11572 1 1 0.0 -33.245840 -21.125518 110.655587
11573 1 2 0.0 -26.773810 -24.933047 108.009498
11574 1 2 0.0 -33.155401 -22.105987 108.776339
11575 1 2 0.0 -28.640510 -21.876014 109.857720
11576 1 2 0.0 -32.815785 -19.265599 110.938094
11577 1 2 0.0 -34.756067 -20.526690 111.762073
11578 1 2 0.0 -28.959591 -23.359022 106.920173
11579 1 2 0.0 -32.123157 -22.561318 111.196015
11580 1 2 0.0 -29.507426 -24.609319 109.252651
11581 1 1 0.0 -25.867852 -19.395659 108.353030
11582 1 1 0.0 -28.042494 -20.236292 110.449474
11583 1 1 0.0 -29.813453 -13.287337 111.719130
11584 1 1 0.0 -30.322050 -17.068411 110.366040
11585 1 2 0.0 -24.306297 -20.536585 107.870104
11586 1 2 0.0 -30.426349 -17.934249 108.454135
11587 1 2 0.0 -25.833532 -17.701825 109.741696
11588 1 2 0.0 -29.766537 -15.311493 110.722271
11589 1 2 0.0 -31.731286 -16.544760 111.415022
11590 1 2 0.0 -26.448092 -19.030995 106.749647
11591 1 2 0.0 -29.234612 -18.449964 110.925222
11592 1 2 0.0 -26.889461 -20.310487 109.027883
11593 1 1 0.0 -23.067879 -15.223136 108.406378
11594 1 1 0.0 -25.109614 -16.147914 110.397405
11595 1 1 0.0 -26.377689 -9.677120 111.804499
11596 1 1 0.0 -27.187423 -13.184524 110.326228
11597 1 2 0.0 -21.651939 -16.252545 107.930282
11598 1 2 0.0 -27.465959 -13.938368 108.397887
11599 1 2 0.0 -22.838901 -13.660813 109.836273
11600 1 2 0.0 -26.509118 -11.534209 110.756427
11601 1 2 0.0 -28.496872 -12.748757 111.324421
11602 1 2 0.0 -23.716681 -14.841777 106.817131
11603 1 2 0.0 -26.152048 -14.492755 110.881220
11604 1 2 0.0 -24.077908 -16.142911 109.017176
11605 1 1 0.0 -20.068003 -11.181420 108.678371
11606 1 1 0.0 -21.993329 -12.194273 110.553620
11607 1 1 0.0 -22.733410 -6.258034 112.148748
11608 1 1 0.0 -23.844177 -9.472034 110.533526
11609 1 2 0.0 -18.807006 -12.083170 108.194016
11610 1 2 0.0 -24.277463 -10.115889 108.603880
11611 1 2 0.0 -19.651012 -9.756956 110.147741
11612 1 2 0.0 -23.041652 -7.935341 111.042813
11613 1 2 0.0 -25.057735 -9.134325 111.484265
11614 1 2 0.0 -20.761233 -10.793969 107.127087
11615 1 2 0.0 -22.877951 -10.687719 111.061105
11616 1 2 0.0 -21.073406 -12.106157 109.219824
11617 1 1 0.0 -25.272055 -25.883205 112.060415
11618 1 1 0.0 -27.780436 -26.801561 114.200196
11619 1 1 0.0 -30.242615 -19.773675 115.440909
11620 1 1 0.0 -30.369737 -23.647042 114.154459
11621 1 2 0.0 -23.484544 -26.991301 111.560182
11622 1 2 0.0 -30.200582 -24.523300 112.268113
11623 1 2 0.0 -25.502270 -24.181447 113.421169
11624 1 2 0.0 -29.938469 -21.843186 114.472397
11625 1 2 0.0 -32.011688 -23.148001 115.233088
11626 1 2 0.0 -25.726227 -25.501352 110.469178
11627 1 2 0.0 -29.202864 -25.023044 114.690201
11628 1 2 0.0 -26.383770 -26.841885 112.765563
11629 1 1 0.0 -22.581891 -21.564500 111.956411
11630 1 1 0.0 -24.912961 -22.591021 114.033691
11631 1 1 0.0 -26.918333 -15.957852 115.323912
11632 1 1 0.0 -27.323033 -19.595512 113.955072
11633 1 2 0.0 -20.937634 -22.576504 111.474400
11634 1 2 0.0 -27.341329 -20.350791 112.040346
11635 1 2 0.0 -22.622519 -19.984457 113.347383
11636 1 2 0.0 -26.785495 -17.879147 114.323044
11637 1 2 0.0 -28.850097 -19.186853 114.992335
11638 1 2 0.0 -23.126233 -21.145726 110.353660
11639 1 2 0.0 -26.194139 -20.923771 114.512406
11640 1 2 0.0 -23.657937 -22.542237 112.622088
11641 1 1 0.0 -19.765280 -17.328536 111.990710
11642 1 1 0.0 -21.927810 -18.466932 114.000825
11643 1 1 0.0 -23.451889 -12.272339 115.383415
11644 1 1 0.0 -24.131144 -15.663263 113.927657
11645 1 2 0.0 -18.275741 -18.230889 111.511433
11646 1 2 0.0 -24.318544 -16.302595 112.000584
11647 1 2 0.0 -19.623429 -15.872163 113.407530
11648 1 2 0.0 -23.488462 -14.037472 114.346680
11649 1 2 0.0 -25.543081 -15.354685 114.929484
11650 1 2 0.0 -20.377265 -16.884131 110.399375
11651 1 2 0.0 -23.058027 -16.925706 114.483515
11652 1 2 0.0 -20.808532 -18.326372 112.615254
11653 1 1 0.0 -16.820152 -13.176669 112.165575
11654 1 1 0.0 -18.826894 -14.427886 114.099427
11655 1 1 0.0 -19.840109 -8.720045 115.623358
11656 1 1 0.0 -20.795596 -11.849041 114.070406
11657 1 2 0.0 -15.496571 -13.955838 111.673732
11658 1 2 0.0 -21.134510 -12.376978 112.146202
11659 1 2 0.0 -16.501435 -11.847094 113.605611
11660 1 2 0.0 -20.046073 -10.319264 114.544865
11661 1 2 0.0 -22.094046 -11.648476 115.040370
11662 1 2 0.0 -17.476530 -12.718331 110.609347
11663 1 2 0.0 -19.796159 -13.027552 114.601623
11664 1 2 0.0 -17.835963 -14.194015 112.744609
11665 1 1 0.0 -22.054216 -28.040878 115.606029
11666 1 1 0.0 -24.743626 -29.102963 117.687125
11667 1 1 0.0 -27.418125 -22.439004 118.994832
11668 1 1 0.0 -27.464371 -26.132948 117.653331
11669 1 2 0.0 -20.178469 -29.021621 115.110865
11670 1 2 0.0 -27.216753 -26.902451 115.759887
11671 1 2 0.0 -22.347411 -26.463464 116.984619
11672 1 2 0.0 -27.036659 -24.391936 118.006700
11673 1 2 0.0 -29.232969 -25.730591 118.704104
11674 1 2 0.0 -22.474939 -27.615284 114.018183
11675 1 2 0.0 -26.253572 -27.448271 118.184388
11676 1 2 0.0 -23.236320 -29.039356 116.278475
11677 1 1 0.0 -19.292168 -23.727593 115.559793
11678 1 1 0.0 -21.771288 -24.929226 117.617907
11679 1 1 0.0 -24.020165 -18.625043 118.928695
11680 1 1 0.0 -24.312360 -22.108423 117.544104
11681 1 2 0.0 -17.566197 -24.611813 115.078696
11682 1 2 0.0 -24.244210 -22.751416 115.626558
11683 1 2 0.0 -19.410705 -22.265961 116.953069
11684 1 2 0.0 -23.797936 -20.439130 117.923816
11685 1 2 0.0 -25.953006 -21.811016 118.569648
11686 1 2 0.0 -19.801196 -23.255421 113.957673
11687 1 2 0.0 -23.141750 -23.382580 118.099590
11688 1 2 0.0 -20.417963 -24.761524 116.216294
11689 1 1 0.0 -16.473907 -19.451092 115.575041
11690 1 1 0.0 -18.750031 -20.791428 117.604245
11691 1 1 0.0 -20.541843 -14.884746 118.962331
11692 1 1 0.0 -21.080814 -18.149243 117.529085
11693 1 2 0.0 -14.910805 -20.227951 115.092584
11694 1 2 0.0 -21.175939 -18.673151 115.603282
11695 1 2 0.0 -16.422973 -18.104672 116.978787
11696 1 2 0.0 -20.479268 -16.554229 117.936933
11697 1 2 0.0 -22.591827 -17.963473 118.534547
11698 1 2 0.0 -17.049418 -18.944813 113.981619
11699 1 2 0.0 -19.969172 -19.365159 118.085811
11700 1 2 0.0 -17.546051 -20.520003 116.213331
11701 1 1 0.0 -13.598513 -15.211977 115.652779
11702 1 1 0.0 -15.680649 -16.688983 117.645235
11703 1 1 0.0 -16.981364 -11.219755 119.097968
11704 1 1 0.0 -17.770570 -14.254720 117.607285
11705 1 2 0.0 -12.211433 -15.870550 115.153447
11706 1 2 0.0 -18.013277 -14.666640 115.688523
11707 1 2 0.0 -13.382691 -13.980678 117.063481
11708 1 2 0.0 -17.079933 -12.737847 118.046916
11709 1 2 0.0 -19.151333 -14.186276 118.596475
11710 1 2 0.0 -14.218142 -14.684384 114.091606
11711 1 2 0.0 -16.736616 -15.395390 118.142141
11712 1 2 0.0 -14.620759 -16.314674 116.269394
11713 1 1 0.0 -18.818010 -30.170482 119.151643
11714 1 1 0.0 -21.679049 -31.366567 121.174054
11715 1 1 0.0 -24.572404 -25.081172 122.548755
11716 1 1 0.0 -24.530528 -28.584193 121.152202
11717 1 2 0.0 -16.855876 -31.024486 118.661548
11718 1 2 0.0 -24.204788 -29.244590 119.251661
11719 1 2 0.0 -19.176257 -28.722522 120.548068
11720 1 2 0.0 -24.111028 -26.912642 121.541003
11721 1 2 0.0 -26.420861 -28.275537 122.175120
11722 1 2 0.0 -19.206176 -29.701531 117.567188
11723 1 2 0.0 -23.275923 -29.837804 121.678574
11724 1 2 0.0 -20.065546 -31.202429 119.791387
11725 1 1 0.0 -15.998760 -25.885055 119.163175
11726 1 1 0.0 -18.617706 -27.251220 121.202124
11727 1 1 0.0 -21.119036 -21.289004 122.533477
11728 1 1 0.0 -21.290342 -24.607528 121.133136
11729 1 2 0.0 -14.192036 -26.642594 118.682992
11730 1 2 0.0 -21.135355 -25.136604 119.212769
11731 1 2 0.0 -16.198106 -24.546358 120.558756
11732 1 2 0.0 -20.804041 -22.991652 121.524589
11733 1 2 0.0 -23.040454 -24.417747 122.146961
11734 1 2 0.0 -16.473060 -25.360208 117.561686
11735 1 2 0.0 -20.077709 -25.826722 121.686774
11736 1 2 0.0 -17.169707 -26.968596 119.810499
11737 1 1 0.0 -13.193531 -21.590453 119.159372
11738 1 1 0.0 -15.576201 -23.121299 121.207665
11739 1 1 0.0 -17.647104 -17.513852 122.541247
11740 1 1 0.0 -18.036273 -20.642270 121.130514
11741 1 2 0.0 -11.556938 -22.243408 118.673734
11742 1 2 0.0 -18.038000 -21.049844 119.205980
11743 1 2 0.0 -13.237241 -20.357927 120.550043
11744 1 2 0.0 -17.481221 -19.084110 121.527187
11745 1 2 0.0 -19.643038 -20.575042 122.139610
11746 1 2 0.0 -13.732849 -21.023363 117.563864
11747 1 2 0.0 -16.885369 -21.810971 121.688106
11748 1 2 0.0 -14.290328 -22.723603 119.811409
11749 1 1 0.0 -10.402552 -17.286527 119.139983
11750 1 1 0.0 -12.554211 -18.977041 121.191042
11751 1 1 0.0 -14.156195 -13.756095 122.572578
11752 1 1 0.0 -14.768466 -16.688298 121.144165
11753 1 2 0.0 -8.951157 -17.826583 118.633163
11754 1 2 0.0 -14.913111 -16.984015 119.230844
11755 1 2 0.0 -10.294179 -16.156860 120.521351
11756 1 2 0.0 -14.142425 -15.190138 121.548968
11757 1 2 0.0 -16.229012 -16.747069 122.152579
11758 1 2 0.0 -10.985408 -16.691081 117.573865
11759 1 2 0.0 -13.698830 -17.790612 121.682659
11760 1 2 0.0 -11.427356 -18.467486 119.794178
11761 1 1 0.0 -15.563524 -32.272149 122.697258
11762 1 1 0.0 -18.586796 -33.592499 124.660984
11763 1 1 0.0 -21.705719 -27.700468 126.102677
11764 1 1 0.0 -21.568526 -31.001163 124.651074
11765 1 2 0.0 -13.516791 -32.999940 122.212231
11766 1 2 0.0 -21.165087 -31.550244 122.743435
11767 1 2 0.0 -15.988873 -30.958709 124.111517
11768 1 2 0.0 -21.161854 -29.405630 125.075307
11769 1 2 0.0 -23.575765 -30.783289 125.646135
11770 1 2 0.0 -15.920102 -31.760352 121.116194
11771 1 2 0.0 -20.270099 -32.191875 125.172760
11772 1 2 0.0 -16.871546 -33.331245 123.304299
11773 1 1 0.0 -12.701685 -28.036911 122.766557
11774 1 1 0.0 -15.452254 -29.557056 124.786341
11775 1 1 0.0 -18.214982 -23.949774 126.138260
11776 1 1 0.0 -18.257108 -27.092979 124.722168
11777 1 2 0.0 -10.815153 -28.668853 122.287288
11778 1 2 0.0 -18.014933 -27.506574 122.798981
11779 1 2 0.0 -12.984724 -26.825653 124.164443
11780 1 2 0.0 -17.803882 -25.536801 125.125361
11781 1 2 0.0 -20.112626 -27.007254 125.724274
11782 1 2 0.0 -13.141855 -27.460131 121.165699
11783 1 2 0.0 -17.002089 -28.256291 125.273958
11784 1 2 0.0 -13.913203 -29.163503 123.404704
11785 1 1 0.0 -9.924100 -23.746540 122.743703
11786 1 1 0.0 -12.406306 -25.456528 124.811084
11787 1 1 0.0 -14.767482 -20.159449 126.120163
11788 1 1 0.0 -14.997457 -23.142265 124.731943
11789 1 2 0.0 -8.214122 -24.277232 122.254885
11790 1 2 0.0 -14.904660 -23.432587 122.808677
11791 1 2 0.0 -10.066175 -22.631846 124.121300
11792 1 2 0.0 -14.494191 -21.626961 125.117440
11793 1 2 0.0 -16.696686 -23.189358 125.744673
11794 1 2 0.0 -10.427451 -23.119613 121.146108
11795 1 2 0.0 -13.806586 -24.263101 125.290402
11796 1 2 0.0 -11.041336 -24.937129 123.409487
11797 1 1 0.0 -7.232149 -19.400135 122.627187
11798 1 1 0.0 -9.447514 -21.291971 124.736850
11799 1 1 0.0 -11.364183 -16.328607 126.047188
11800 1 1 0.0 -11.789030 -19.149466 124.681044
11801 1 2 0.0 -5.715703 -19.823871 122.112879
11802 1 2 0.0 -11.833711 -19.328707 122.773165
11803 1 2 0.0 -7.235782 -18.375475 123.979221
11804 1 2 0.0 -11.233215 -17.675742 125.051020
11805 1 2 0.0 -13.326840 -19.330581 125.708684
11806 1 2 0.0 -7.778088 -18.738041 121.056124
11807 1 2 0.0 -10.682661 -20.213043 125.223177
11808 1 2 0.0 -8.255661 -20.652316 123.318963
11809 1 1 0.0 -12.290555 -34.345571 126.242872
11810 1 1 0.0 -15.466522 -35.780287 128.147913
11811 1 1 0.0 -18.818004 -30.296821 129.656600
11812 1 1 0.0 -18.578236 -33.383703 128.149946
11813 1 2 0.0 -10.160977 -34.947592 125.762914
11814 1 2 0.0 -18.097613 -33.819363 126.235209
11815 1 2 0.0 -12.785064 -33.171753 127.674966
11816 1 2 0.0 -18.189044 -31.870791 128.609610
11817 1 2 0.0 -20.697559 -33.253708 129.117151
11818 1 2 0.0 -12.616608 -33.791575 124.665199
11819 1 2 0.0 -17.235838 -34.510154 128.666946
11820 1 2 0.0 -13.654049 -35.425406 126.817211
11821 1 1 0.0 -9.400901 -30.183100 126.369939
11822 1 1 0.0 -12.274783 -31.846532 128.370557
11823 1 1 0.0 -15.307996 -26.607344 129.743043
11824 1 1 0.0 -15.212605 -29.564715 128.311199
11825 1 2 0.0 -7.435511 -30.690524 125.891584
11826 1 2 0.0 -14.882927 -29.861306 126.385192
11827 1 2 0.0 -9.770550 -29.103832 127.770129
11828 1 2 0.0 -14.797436 -28.074547 128.726134
11829 1 2 0.0 -17.169466 -29.579474 129.301587
11830 1 2 0.0 -9.807561 -29.555161 124.769712
11831 1 2 0.0 -13.914785 -30.671153 128.861142
11832 1 2 0.0 -10.648355 -31.346104 126.998910
11833 1 1 0.0 -6.665735 -25.919539 126.328035
11834 1 1 0.0 -9.240397 -27.797180 128.414504
11835 1 1 0.0 -11.903023 -22.821588 129.699079
11836 1 1 0.0 -11.964392 -25.649259 128.333371
11837 1 2 0.0 -4.882514 -26.329685 125.836035
11838 1 2 0.0 -11.775926 -25.821389 126.411375
11839 1 2 0.0 -6.909950 -24.926678 127.692557
11840 1 2 0.0 -11.518222 -24.182834 128.707693
11841 1 2 0.0 -13.752780 -25.806431 129.349736
11842 1 2 0.0 -7.133297 -25.233674 124.728352
11843 1 2 0.0 -10.732869 -26.721607 128.892697
11844 1 2 0.0 -7.799153 -27.160698 127.007565
11845 1 1 0.0 -4.087587 -21.553233 126.114391
11846 1 1 0.0 -6.360806 -23.634110 128.282657
11847 1 1 0.0 -8.605430 -18.937404 129.521798
11848 1 1 0.0 -8.832363 -21.638349 128.217924
11849 1 2 0.0 -2.505427 -21.863005 125.592594
11850 1 2 0.0 -8.775106 -21.700754 126.315487
11851 1 2 0.0 -4.207859 -20.637029 127.437090
11852 1 2 0.0 -8.352413 -20.194793 128.553071
11853 1 2 0.0 -10.444891 -21.936894 129.264789
11854 1 2 0.0 -4.596341 -20.825517 124.538383
11855 1 2 0.0 -7.688309 -22.662934 128.763695
11856 1 2 0.0 -5.105928 -22.869537 126.843748
11857 1 1 0.0 -8.998596 -36.389972 129.788486
11858 1 1 0.0 -12.317416 -37.928829 131.634842
11859 1 1 0.0 -15.908856 -32.869793 133.210522
11860 1 1 0.0 -15.559077 -35.731103 131.648818
11861 1 2 0.0 -6.787919 -36.866584 129.313598
11862 1 2 0.0 -15.001885 -36.051313 129.726983
11863 1 2 0.0 -9.564365 -35.360999 131.238415
11864 1 2 0.0 -15.192123 -34.307568 132.143913
11865 1 2 0.0 -17.785590 -35.686059 132.588167
11866 1 2 0.0 -9.295303 -35.794581 128.214204
11867 1 2 0.0 -14.172414 -36.791726 132.161132
11868 1 2 0.0 -10.412397 -37.483940 130.330123
11869 1 1 0.0 -6.096308 -32.323466 129.973320
11870 1 1 0.0 -9.084947 -34.119176 131.954774
11871 1 1 0.0 -12.398019 -29.261653 133.347825
11872 1 1 0.0 -12.156602 -32.022453 131.900231
11873 1 2 0.0 -4.053024 -32.707468 129.495880
11874 1 2 0.0 -11.739136 -32.200536 129.971403
11875 1 2 0.0 -6.555562 -31.380863 131.375816
11876 1 2 0.0 -11.784576 -30.604742 132.326906
11877 1 2 0.0 -14.210671 -32.134065 132.878900
11878 1 2 0.0 -6.470110 -31.645188 128.373725
11879 1 2 0.0 -10.815496 -33.070931 132.448326
11880 1 2 0.0 -7.374930 -33.516054 130.593115
11881 1 1 0.0 -3.418740 -28.109914 129.912366
11882 1 1 0.0 -6.078587 -30.143414 132.017924
11883 1 1 0.0 -9.054017 -25.500587 133.277996
11884 1 1 0.0 -8.937197 -28.163398 131.934800
11885 1 2 0.0 -1.562461 -28.401342 129.417186
11886 1 2 0.0 -8.651876 -28.216354 130.014073
11887 1 2 0.0 -3.768986 -27.243013 131.263814
11888 1 2 0.0 -8.553535 -26.751989 132.297946
11889 1 2 0.0 -10.811367 -28.426316 132.954799
11890 1 2 0.0 -3.850637 -27.365945 128.310596
11891 1 2 0.0 -7.664348 -29.186653 132.494993
11892 1 2 0.0 -4.563970 -29.394591 130.605643
11893 1 1 0.0 -0.969574 -23.746905 129.601595
11894 1 1 0.0 -3.294663 -26.004243 131.828464
11895 1 1 0.0 -5.880575 -21.583181 132.996409
11896 1 1 0.0 -5.898935 -24.155518 131.754803
11897 1 2 0.0 0.678895 -23.945274 129.072310
11898 1 2 0.0 -5.737657 -24.100631 129.857808
11899 1 2 0.0 -1.211273 -22.942738 130.894960
11900 1 2 0.0 -5.500591 -22.747960 132.055123
11901 1 2 0.0 -7.583565 -24.566459 132.820893
11902 1 2 0.0 -1.440742 -22.954418 128.020643
11903 1 2 0.0 -4.716333 -25.140988 132.304213
11904 1 2 0.0 -1.978773 -25.120058 130.368533
11905 1 1 0.0 -5.686792 -38.404046 133.334101
11906 1 1 0.0 -9.138132 -40.036292 135.121772
11907 1 1 0.0 -12.977503 -35.418539 136.764445
11908 1 1 0.0 -12.509962 -38.042042 135.147689
11909 1 2 0.0 -3.396776 -38.755518 132.864281
11910 1 2 0.0 -11.876939 -38.244828 133.218757
11911 1 2 0.0 -6.326000 -37.525351 134.801865
11912 1 2 0.0 -12.170201 -36.714911 135.678216
11913 1 2 0.0 -14.838619 -38.078946 136.059182
11914 1 2 0.0 -5.955482 -37.768252 131.763209
11915 1 2 0.0 -11.078573 -39.035013 135.655318
11916 1 2 0.0 -7.145486 -39.505221 133.843035
11917 1 1 0.0 -2.787732 -34.457748 133.576702
11918 1 1 0.0 -5.882167 -36.374201 135.538991
11919 1 1 0.0 -9.484946 -31.912582 136.952608
11920 1 1 0.0 -9.088666 -34.465667 135.489263
11921 1 2 0.0 -0.667554 -34.719453 133.100176
11922 1 2 0.0 -8.583158 -34.523734 133.557615
11923 1 2 0.0 -3.339723 -33.656695 134.981503
11924 1 2 0.0 -8.765064 -33.127107 135.927679
11925 1 2 0.0 -11.235668 -34.670382 136.456213
11926 1 2 0.0 -3.129375 -33.730014 131.977738
11927 1 2 0.0 -7.703709 -35.454977 136.035510
11928 1 2 0.0 -4.092534 -35.672774 134.187320
11929 1 1 0.0 -0.183626 -30.318446 133.496697
11930 1 1 0.0 -2.921069 -32.495490 135.621344
11931 1 1 0.0 -6.221022 -28.197052 136.856912
11932 1 1 0.0 -5.916091 -30.684949 135.536228
11933 1 2 0.0 1.745474 -30.493139 132.998336
11934 1 2 0.0 -5.532672 -30.617693 133.616771
11935 1 2 0.0 -0.643986 -29.581842 134.835070
11936 1 2 0.0 -5.600547 -29.334919 135.888200
11937 1 2 0.0 -7.872539 -31.049116 136.559862
11938 1 2 0.0 -0.579927 -29.517149 131.892841
11939 1 2 0.0 -4.601245 -31.658520 136.097288
11940 1 2 0.0 -1.336107 -31.639279 134.203721
11941 1 1 0.0 2.120694 -25.982976 133.088799
11942 1 1 0.0 -0.250047 -28.403678 135.374272
11943 1 1 0.0 -3.190837 -24.267270 136.471019
11944 1 1 0.0 -2.989620 -26.702035 135.291683
11945 1 2 0.0 3.835999 -26.072782 132.552025
11946 1 2 0.0 -2.722083 -26.529286 133.400129
11947 1 2 0.0 1.752534 -25.294635 134.352830
11948 1 2 0.0 -2.678817 -25.336504 135.557175
11949 1 2 0.0 -4.743617 -27.220128 136.376998
11950 1 2 0.0 1.687674 -25.126384 131.502902
11951 1 2 0.0 -1.767693 -27.648416 135.844732
11952 1 2 0.0 1.124774 -27.405398 133.893317
11953 1 1 0.0 -2.353863 -40.385835 136.879715
11954 1 1 0.0 -5.926667 -42.099949 138.608701
11955 1 1 0.0 -10.022736 -37.941742 140.318367
11956 1 1 0.0 -9.429207 -40.314471 138.646561
11957 1 2 0.0 0.013695 -40.612329 136.414964
11958 1 2 0.0 -8.721246 -40.397897 136.710531
11959 1 2 0.0 -3.068806 -39.663175 138.365314
11960 1 2 0.0 -9.121889 -39.091186 139.212519
11961 1 2 0.0 -11.854716 -40.430192 139.530198
11962 1 2 0.0 -2.596064 -39.710875 135.312214
11963 1 2 0.0 -7.952422 -41.237633 139.149504
11964 1 2 0.0 -3.851668 -41.486816 137.355948
11965 1 1 0.0 0.525082 -36.585552 137.180084
11966 1 1 0.0 -2.665585 -38.610438 139.123208
11967 1 1 0.0 -6.568606 -34.559948 140.557390
11968 1 1 0.0 -6.008127 -36.893540 139.078295
11969 1 2 0.0 2.721106 -36.726138 136.704472
11970 1 2 0.0 -5.414357 -36.830063 137.143826
11971 1 2 0.0 -0.122975 -35.931248 138.587190
11972 1 2 0.0 -5.738533 -35.641207 139.528451
11973 1 2 0.0 -8.243563 -37.187416 140.033527
11974 1 2 0.0 0.214835 -35.809335 135.581751
11975 1 2 0.0 -4.578645 -37.822311 139.622694
11976 1 2 0.0 -0.800584 -37.815402 137.781526
11977 1 1 0.0 3.038840 -32.546307 137.081028
11978 1 1 0.0 0.231872 -34.853795 139.224763
11979 1 1 0.0 -3.404909 -30.911936 140.435828
11980 1 1 0.0 -2.901418 -33.214329 139.137657
11981 1 2 0.0 5.040458 -32.606461 136.579487
11982 1 2 0.0 -2.418567 -33.025738 137.219468
11983 1 2 0.0 2.464002 -31.944642 138.406327
11984 1 2 0.0 -2.659909 -31.932386 139.478453
11985 1 2 0.0 -4.936439 -33.674991 140.164925
11986 1 2 0.0 2.678136 -31.688391 135.475085
11987 1 2 0.0 -1.543899 -34.137632 139.699584
11988 1 2 0.0 1.883959 -33.895467 137.801798
11989 1 1 0.0 5.181427 -28.264185 136.576003
11990 1 1 0.0 2.771614 -30.834361 138.920079
11991 1 1 0.0 -0.538131 -26.991759 139.945629
11992 1 1 0.0 -0.105773 -29.279552 138.828562
11993 1 2 0.0 6.964011 -28.248639 136.031741
11994 1 2 0.0 0.270469 -28.988224 136.942451
11995 1 2 0.0 4.681409 -27.695751 137.810700
11996 1 2 0.0 0.111237 -27.962390 139.059226
11997 1 2 0.0 -1.926227 -29.899230 139.933103
11998 1 2 0.0 4.787320 -27.343931 134.985161
11999 1 2 0.0 1.156158 -30.187045 139.385250
12000 1 2 0.0 4.203171 -29.727832 137.418102
12001 1 1 0.0 1.002031 -42.332530 140.425329
12002 1 1 0.0 -2.680148 -44.115892 142.095630
12003 1 1 0.0 -7.042789 -40.437475 143.872290
12004 1 1 0.0 -6.314365 -42.545409 142.145433
12005 1 2 0.0 3.445273 -42.434059 139.965647
12006 1 2 0.0 -5.532567 -42.507573 140.202305
12007 1 2 0.0 0.208877 -41.772126 141.928763
12008 1 2 0.0 -6.045168 -41.434015 142.746822
12009 1 2 0.0 -8.831069 -42.736626 143.001214
12010 1 2 0.0 0.784518 -41.619968 138.861219
12011 1 2 0.0 -4.791236 -43.396155 142.643690
12012 1 2 0.0 -0.528576 -43.425237 140.868860
12013 1 1 0.0 3.842503 -38.706315 140.783466
12014 1 1 0.0 0.566032 -40.826211 142.707424
12015 1 1 0.0 -3.648754 -37.203483 144.162173
12016 1 1 0.0 -2.914009 -39.304886 142.667327
12017 1 2 0.0 6.113247 -38.727036 140.308768
12018 1 2 0.0 -2.231797 -39.118294 140.730038
12019 1 2 0.0 3.094760 -38.204409 142.192876
12020 1 2 0.0 -2.704444 -38.146410 143.129224
12021 1 2 0.0 -5.233053 -39.683699 143.610840
12022 1 2 0.0 3.562797 -37.882710 139.185764
12023 1 2 0.0 -1.439184 -40.171525 143.209878
12024 1 2 0.0 2.501761 -39.942698 141.375731
12025 1 1 0.0 6.247556 -34.795181 140.665360
12026 1 1 0.0 3.379829 -37.218886 142.828183
12027 1 1 0.0 -0.606952 -33.646625 144.014744
12028 1 1 0.0 0.106326 -35.752144 142.739086
12029 1 2 0.0 8.321300 -34.743288 140.160638
12030 1 2 0.0 0.690069 -35.440980 140.822166
12031 1 2 0.0 5.553475 -34.333530 141.977584
12032 1 2 0.0 0.267436 -34.545505 143.068706
12033 1 2 0.0 -2.003275 -36.304176 143.769988
12034 1 2 0.0 5.922539 -33.881273 139.057329
12035 1 2 0.0 1.507206 -36.624600 143.301880
12036 1 2 0.0 5.095543 -36.164167 141.399876
12037 1 1 0.0 8.210053 -30.594459 140.063207
12038 1 1 0.0 5.768271 -33.299079 142.465886
12039 1 1 0.0 2.074753 -29.759691 143.420239
12040 1 1 0.0 2.750635 -31.890467 142.365442
12041 1 2 0.0 10.060256 -30.477295 139.511457
12042 1 2 0.0 3.238323 -31.479653 140.484772
12043 1 2 0.0 7.572267 -30.150436 141.268569
12044 1 2 0.0 2.867146 -30.628476 142.561278
12045 1 2 0.0 0.866888 -32.605704 143.489208
12046 1 2 0.0 7.855896 -29.610703 138.467420
12047 1 2 0.0 4.053128 -32.759507 142.925768
12048 1 2 0.0 7.254208 -32.090620 140.942887
12049 1 1 0.0 4.383506 -44.240129 143.970944
12050 1 1 0.0 0.605514 -46.078552 145.582559
12051 1 1 0.0 -4.035149 -42.902996 147.426212
12052 1 1 0.0 -3.161951 -44.730616 145.644305
12053 1 2 0.0 6.900495 -44.216494 143.516330
12054 1 2 0.0 -2.307705 -44.569650 143.694079
12055 1 2 0.0 3.509420 -43.848869 145.492212
12056 1 2 0.0 -2.937160 -43.740009 146.281125
12057 1 2 0.0 -5.763672 -44.993732 146.472230
12058 1 2 0.0 4.188493 -43.492000 142.410225
12059 1 2 0.0 -1.591136 -45.505697 146.137876
12060 1 2 0.0 2.827157 -45.315515 144.381772
12061 1 1 0.0 7.165057 -40.819234 144.386847
12062 1 1 0.0 3.814436 -43.019130 146.291641
12063 1 1 0.0 -0.725039 -39.842804 147.766956
12064 1 1 0.0 0.195076 -41.698014 146.256359
12065 1 2 0.0 9.509289 -40.721452 143.913064
12066 1 2 0.0 0.965854 -41.386671 144.316249
12067 1 2 0.0 6.313597 -40.476017 145.798563
12068 1 2 0.0 0.337969 -40.641814 146.729996
12069 1 2 0.0 -2.202284 -42.157139 147.188153
12070 1 2 0.0 6.914907 -39.949514 142.789778
12071 1 2 0.0 1.716268 -42.500613 146.797062
12072 1 2 0.0 5.815698 -42.052898 144.969936
12073 1 1 0.0 9.440955 -37.067462 144.249691
12074 1 1 0.0 6.522219 -39.591553 146.431603
12075 1 1 0.0 2.171038 -36.403098 147.593660
12076 1 1 0.0 3.106431 -38.299256 146.340514
12077 1 2 0.0 11.586299 -36.906445 143.741788
12078 1 2 0.0 3.792704 -37.864114 144.424864
12079 1 2 0.0 8.622293 -36.751522 145.548840
12080 1 2 0.0 3.180139 -37.175860 146.658960
12081 1 2 0.0 0.926659 -38.937004 147.375051
12082 1 2 0.0 9.151845 -36.098073 142.639574
12083 1 2 0.0 4.551377 -39.120295 146.904175
12084 1 2 0.0 8.297667 -38.446818 144.997954
12085 1 1 0.0 11.202914 -32.979392 143.550411
12086 1 1 0.0 8.737007 -35.801804 146.011694
12087 1 1 0.0 4.643840 -32.575405 146.894849
12088 1 1 0.0 5.576799 -34.538193 145.902322
12089 1 2 0.0 13.120916 -32.765092 142.991172
12090 1 2 0.0 6.179085 -34.006719 144.027093
12091 1 2 0.0 10.420712 -32.664882 144.726439
12092 1 2 0.0 5.585450 -33.338834 146.063330
12093 1 2 0.0 3.633281 -35.342307 147.045312
12094 1 2 0.0 10.890129 -31.931883 141.949680
12095 1 2 0.0 6.920242 -35.369549 146.466286
12096 1 2 0.0 10.274735 -34.498405 144.467672
12097 1 1 0.0 -40.703786 -8.398253 104.774509
12098 1 1 0.0 -42.400652 -8.271037 107.149030
12099 1 1 0.0 -42.248019 0.227473 108.121771
12100 1 1 0.0 -43.572219 -4.054932 107.055524
12101 1 2 0.0 -39.672849 -10.290235 104.254001
12102 1 2 0.0 -43.988974 -5.268468 105.197569
12103 1 2 0.0 -40.243688 -6.304230 106.063924
12104 1 2 0.0 -42.759756 -2.202525 107.231737
12105 1 2 0.0 -44.430681 -2.924968 108.245577
12106 1 2 0.0 -41.241108 -8.069092 103.169709
12107 1 2 0.0 -42.955154 -5.840987 107.610009
12108 1 2 0.0 -41.620415 -8.946182 105.610466
12109 1 1 0.0 -37.629418 -4.876639 104.439436
12110 1 1 0.0 -39.287894 -4.730034 106.593376
12111 1 1 0.0 -38.708546 3.140745 107.801334
12112 1 1 0.0 -40.344427 -0.738267 106.495496
12113 1 2 0.0 -36.683089 -6.656969 103.953767
12114 1 2 0.0 -40.949761 -1.818876 104.592052
12115 1 2 0.0 -36.964016 -2.969878 105.821188
12116 1 2 0.0 -39.387545 0.930861 106.816506
12117 1 2 0.0 -41.156018 0.355183 107.579634
12118 1 2 0.0 -38.262210 -4.534602 102.834159
12119 1 2 0.0 -39.733343 -2.446603 107.060222
12120 1 2 0.0 -38.584751 -5.365331 105.141819
12121 1 1 0.0 -34.214498 -1.702938 104.549936
12122 1 1 0.0 -35.853629 -1.555203 106.483698
12123 1 1 0.0 -34.865539 5.621763 107.964302
12124 1 1 0.0 -36.790401 2.163536 106.418494
12125 1 2 0.0 -33.352355 -3.346690 104.083382
12126 1 2 0.0 -37.557006 1.214496 104.486345
12127 1 2 0.0 -33.360825 0.007967 106.019055
12128 1 2 0.0 -35.697320 3.645907 106.882219
12129 1 2 0.0 -37.565197 3.200434 107.405784
12130 1 2 0.0 -34.919416 -1.359887 102.966950
12131 1 2 0.0 -36.194107 0.557458 106.970885
12132 1 2 0.0 -35.213720 -2.138522 105.119494
12133 1 1 0.0 -30.453449 1.117149 105.113311
12134 1 1 0.0 -32.103083 1.259407 106.812750
12135 1 1 0.0 -30.712222 7.660876 108.621469
12136 1 1 0.0 -32.913572 4.654841 106.819439
12137 1 2 0.0 -29.673844 -0.365842 104.651421
12138 1 2 0.0 -33.815648 3.837460 104.873468
12139 1 2 0.0 -29.424454 2.618659 106.670684
12140 1 2 0.0 -31.686215 5.938842 107.433210
12141 1 2 0.0 -33.665622 5.620970 107.712503
12142 1 2 0.0 -31.205903 1.448307 103.576861
12143 1 2 0.0 -32.341510 3.176196 107.336102
12144 1 2 0.0 -31.508427 0.735411 105.542022
12145 1 1 0.0 -38.130620 -11.300591 108.320123
12146 1 1 0.0 -40.084224 -11.307243 110.635960
12147 1 1 0.0 -40.178439 -3.064117 111.675694
12148 1 1 0.0 -41.427468 -7.231762 110.554395
12149 1 2 0.0 -36.976737 -13.085363 107.804684
12150 1 2 0.0 -41.746934 -8.369831 108.689343
12151 1 2 0.0 -37.744782 -9.294246 109.627374
12152 1 2 0.0 -40.605413 -5.415620 110.766040
12153 1 2 0.0 -42.455270 -6.177675 111.716593
12154 1 2 0.0 -38.623062 -10.936506 106.718714
12155 1 2 0.0 -40.752762 -8.970873 111.104195
12156 1 2 0.0 -39.151655 -11.894600 109.123379
12157 1 1 0.0 -34.902796 -7.717093 108.042818
12158 1 1 0.0 -36.788645 -7.747178 110.177592
12159 1 1 0.0 -36.467670 -0.098462 111.406116
12160 1 1 0.0 -38.007399 -3.889219 110.084528
12161 1 2 0.0 -33.843878 -9.386209 107.558063
12162 1 2 0.0 -38.508091 -4.886055 108.178264
12163 1 2 0.0 -34.322165 -5.892495 109.426874
12164 1 2 0.0 -37.055195 -2.238144 110.417278
12165 1 2 0.0 -38.975594 -2.892077 111.156947
12166 1 2 0.0 -35.486659 -7.328194 106.438172
12167 1 2 0.0 -37.345237 -5.556430 110.647406
12168 1 2 0.0 -35.944735 -8.273873 108.736024
12169 1 1 0.0 -31.393134 -4.421527 108.134268
12170 1 1 0.0 -33.227851 -4.489172 110.087118
12171 1 1 0.0 -32.501544 2.503546 111.543218
12172 1 1 0.0 -34.313617 -0.894748 110.019923
12173 1 2 0.0 -30.430933 -5.952367 107.664533
12174 1 2 0.0 -34.970845 -1.753586 108.089043
12175 1 2 0.0 -30.632323 -2.785217 109.590312
12176 1 2 0.0 -33.237870 0.587958 110.472472
12177 1 2 0.0 -35.230225 0.028040 111.010847
12178 1 2 0.0 -32.046016 -4.020677 106.549194
12179 1 2 0.0 -33.673979 -2.466286 110.573180
12180 1 2 0.0 -32.460621 -4.945775 108.717572
12181 1 1 0.0 -27.597015 -1.418611 108.600515
12182 1 1 0.0 -29.406151 -1.528318 110.358557
12183 1 1 0.0 -28.274361 4.733788 112.096079
12184 1 1 0.0 -30.349002 1.755311 110.356319
12185 1 2 0.0 -26.732314 -2.789130 108.131137
12186 1 2 0.0 -31.139364 1.032484 108.415789
12187 1 2 0.0 -26.667276 0.018795 110.128554
12188 1 2 0.0 -29.151031 3.059520 110.935261
12189 1 2 0.0 -31.225386 2.591234 111.268607
12190 1 2 0.0 -28.295426 -1.019597 107.059121
12191 1 2 0.0 -29.742367 0.303713 110.876620
12192 1 2 0.0 -28.700228 -1.909342 109.066806
12193 1 1 0.0 -35.528541 -14.174629 111.865738
12194 1 1 0.0 -37.725564 -14.306369 114.122889
12195 1 1 0.0 -38.076665 -6.333098 115.229616
12196 1 1 0.0 -39.238865 -10.374109 114.053267
12197 1 2 0.0 -34.254433 -15.852839 111.355367
12198 1 2 0.0 -39.460142 -11.433181 112.181117
12199 1 2 0.0 -35.220830 -12.261532 113.190823
12200 1 2 0.0 -38.414542 -8.600947 114.300343
12201 1 2 0.0 -40.429037 -9.393436 115.187609
12202 1 2 0.0 -35.976631 -13.775210 110.267720
12203 1 2 0.0 -38.507364 -12.065784 114.598381
12204 1 2 0.0 -36.646599 -14.808636 112.636291
12205 1 1 0.0 -32.170374 -10.551869 111.646200
12206 1 1 0.0 -34.271283 -10.748418 113.761809
12207 1 1 0.0 -34.222304 -3.334516 115.010899
12208 1 1 0.0 -35.652902 -7.026435 113.673560
12209 1 2 0.0 -31.000346 -12.110888 111.162359
12210 1 2 0.0 -36.047755 -7.937380 111.764475
12211 1 2 0.0 -31.679107 -8.814017 113.032561
12212 1 2 0.0 -34.713128 -5.399762 114.018051
12213 1 2 0.0 -36.771636 -6.122228 114.734260
12214 1 2 0.0 -32.706076 -10.116695 110.042185
12215 1 2 0.0 -34.939458 -8.651886 114.234590
12216 1 2 0.0 -33.291829 -11.170206 112.330229
12217 1 1 0.0 -28.589080 -7.157059 111.718599
12218 1 1 0.0 -30.608078 -7.428415 113.690537
12219 1 1 0.0 -30.160763 -0.630972 115.122134
12220 1 1 0.0 -31.845749 -3.960043 113.621351
12221 1 2 0.0 -27.527062 -8.576573 111.245684
12222 1 2 0.0 -32.392104 -4.727971 111.691741
12223 1 2 0.0 -27.926454 -5.598939 113.161568
12224 1 2 0.0 -30.795513 -2.482985 114.062725
12225 1 2 0.0 -32.899007 -3.147083 114.615910
12226 1 2 0.0 -29.190934 -6.699997 110.131438
12227 1 2 0.0 -31.161514 -5.496262 114.175476
12228 1 2 0.0 -29.718041 -7.762991 112.315650
12229 1 1 0.0 -24.781003 -3.993936 112.087719
12230 1 1 0.0 -26.739344 -4.342494 113.904364
12231 1 1 0.0 -25.887417 1.770946 115.570689
12232 1 1 0.0 -27.819730 -1.171975 113.893198
12233 1 2 0.0 -23.830206 -5.254035 111.610852
12234 1 2 0.0 -28.496587 -1.800954 111.958111
12235 1 2 0.0 -23.956571 -2.623242 113.586423
12236 1 2 0.0 -26.659750 0.146824 114.437313
12237 1 2 0.0 -28.816191 -0.461067 114.824712
12238 1 2 0.0 -25.426619 -3.529649 110.541380
12239 1 2 0.0 -27.176221 -2.595604 114.417138
12240 1 2 0.0 -25.925955 -4.586230 112.591591
12241 1 1 0.0 -32.899634 -17.022406 115.411352
12242 1 1 0.0 -35.327640 -17.271019 117.609818
12243 1 1 0.0 -35.945342 -9.581330 118.783539
12244 1 1 0.0 -37.009932 -13.484742 117.552139
12245 1 2 0.0 -31.507721 -18.594548 114.906050
12246 1 2 0.0 -37.132380 -14.461730 115.672891
12247 1 2 0.0 -32.673607 -15.207702 116.754272
12248 1 2 0.0 -36.190104 -11.760757 117.834646
12249 1 2 0.0 -38.356121 -12.575261 118.658624
12250 1 2 0.0 -33.304031 -16.587445 113.816725
12251 1 2 0.0 -36.222152 -15.128317 118.092567
12252 1 2 0.0 -34.107835 -17.690742 116.149203
12253 1 1 0.0 -29.432569 -13.381376 115.249581
12254 1 1 0.0 -31.737081 -13.734871 117.346026
12255 1 1 0.0 -31.972816 -6.567675 118.615681
12256 1 1 0.0 -33.282341 -10.151017 117.262592
12257 1 2 0.0 -28.152788 -14.831316 114.766655
12258 1 2 0.0 -33.570331 -10.974190 115.350687
12259 1 2 0.0 -29.034927 -11.734520 116.638248
12260 1 2 0.0 -32.362131 -8.554593 117.618823
12261 1 2 0.0 -34.546060 -9.336664 118.311574
12262 1 2 0.0 -29.920852 -12.900503 113.646199
12263 1 2 0.0 -32.517319 -11.734036 117.821774
12264 1 2 0.0 -30.626954 -14.055200 115.924435
12265 1 1 0.0 -25.801089 -9.908315 115.302930
12266 1 1 0.0 -27.993889 -10.372560 117.293957
12267 1 1 0.0 -27.841288 -3.780451 118.701050
12268 1 1 0.0 -29.386079 -7.031785 117.222780
12269 1 2 0.0 -24.639545 -11.218043 114.826834
12270 1 2 0.0 -29.820157 -7.708127 115.294438
12271 1 2 0.0 -25.241611 -8.431742 116.732825
12272 1 2 0.0 -28.368864 -5.565869 117.652979
12273 1 2 0.0 -30.571237 -6.324712 118.220973
12274 1 2 0.0 -26.352741 -9.396399 113.713682
12275 1 2 0.0 -28.656142 -8.532006 117.777771
12276 1 2 0.0 -26.985229 -10.589460 115.913728
12277 1 1 0.0 -22.002499 -6.605977 115.574923
12278 1 1 0.0 -24.100545 -7.181262 117.450172
12279 1 1 0.0 -23.547207 -1.224713 119.045299
12280 1 1 0.0 -25.322921 -4.124790 117.430078
12281 1 2 0.0 -20.964833 -7.757722 115.090568
12282 1 2 0.0 -25.884487 -4.660449 115.500432
12283 1 2 0.0 -21.289040 -5.304457 117.044293
12284 1 2 0.0 -24.208815 -2.796543 117.939365
12285 1 2 0.0 -26.435509 -3.534098 118.380817
12286 1 2 0.0 -22.596231 -6.078561 114.023639
12287 1 2 0.0 -24.640621 -5.519763 117.957656
12288 1 2 0.0 -23.183188 -7.292962 116.116376
12289 1 1 0.0 -30.245332 -19.845326 118.956966
12290 1 1 0.0 -32.892488 -20.202983 121.096748
12291 1 1 0.0 -33.786315 -12.810109 122.337461
12292 1 1 0.0 -34.743124 -16.565592 121.051011
12293 1 2 0.0 -28.737820 -21.311777 118.456733
12294 1 2 0.0 -34.766294 -17.457727 119.164665
12295 1 2 0.0 -30.104337 -18.133864 120.317721
12296 1 2 0.0 -33.934163 -14.896619 121.368949
12297 1 2 0.0 -36.239408 -15.725246 122.129640
12298 1 2 0.0 -30.606800 -19.374766 117.365730
12299 1 2 0.0 -33.899332 -18.160267 121.586753
12300 1 2 0.0 -31.537144 -20.542606 119.662115
12301 1 1 0.0 -26.689669 -16.205895 118.852963
12302 1 1 0.0 -29.186911 -16.707306 120.930242
12303 1 1 0.0 -29.719464 -9.798121 122.220464
12304 1 1 0.0 -30.896692 -13.263735 120.851624
12305 1 2 0.0 -25.301404 -17.547705 118.370951
12306 1 2 0.0 -31.076923 -13.997423 118.936898
12307 1 2 0.0 -26.389685 -14.654059 120.243934
12308 1 2 0.0 -30.002753 -11.703053 121.219596
12309 1 2 0.0 -32.300204 -12.536357 121.888887
12310 1 2 0.0 -27.131261 -15.679894 117.250212
12311 1 2 0.0 -30.079727 -14.803619 121.408958
12312 1 2 0.0 -27.950742 -16.929455 119.518640
12313 1 1 0.0 -23.028302 -12.674454 118.887261
12314 1 1 0.0 -25.384994 -13.321354 120.897377
12315 1 1 0.0 -25.541787 -6.943956 122.279966
12316 1 1 0.0 -26.934110 -10.109582 120.824209
12317 1 2 0.0 -21.767566 -13.875917 118.407985
12318 1 2 0.0 -27.254566 -10.693682 118.897136
12319 1 2 0.0 -22.576690 -11.282624 120.304082
12320 1 2 0.0 -25.956957 -8.659959 121.243232
12321 1 2 0.0 -28.246702 -9.504694 121.826036
12322 1 2 0.0 -23.530445 -12.108880 117.295927
12323 1 2 0.0 -26.157469 -11.573198 121.380067
12324 1 2 0.0 -24.261668 -13.424692 119.511805
12325 1 1 0.0 -19.259500 -9.252770 119.062127
12326 1 1 0.0 -21.488301 -10.043345 120.995979
12327 1 1 0.0 -21.250811 -4.251138 122.519910
12328 1 1 0.0 -22.856600 -7.101579 120.966957
12329 1 2 0.0 -18.134362 -10.298253 118.570284
12330 1 2 0.0 -23.301081 -7.544316 119.042753
12331 1 2 0.0 -18.662415 -8.022795 120.502163
12332 1 2 0.0 -21.795744 -5.768692 121.441416
12333 1 2 0.0 -24.081578 -6.626574 121.936922
12334 1 2 0.0 -19.802003 -8.664046 117.505898
12335 1 2 0.0 -22.133874 -8.467386 121.498174
12336 1 2 0.0 -20.470261 -10.027962 119.641161
12337 1 1 0.0 -27.566560 -22.644293 122.502581
12338 1 1 0.0 -30.421411 -23.103404 124.583677
12339 1 1 0.0 -31.600827 -16.020306 125.891384
12340 1 1 0.0 -32.440080 -19.617946 124.549882
12341 1 2 0.0 -25.945498 -24.005337 122.007417
12342 1 2 0.0 -32.363672 -20.422690 122.656438
12343 1 2 0.0 -27.513803 -21.040730 123.881170
12344 1 2 0.0 -31.648103 -18.009584 124.903252
12345 1 2 0.0 -34.080835 -18.844800 125.600656
12346 1 2 0.0 -27.885957 -22.138207 120.914735
12347 1 2 0.0 -31.540345 -21.162803 125.080939
12348 1 2 0.0 -28.935671 -23.365311 123.175027
12349 1 1 0.0 -23.941859 -19.025609 122.456345
12350 1 1 0.0 -26.621334 -19.666211 124.514459
12351 1 1 0.0 -27.462421 -13.025975 125.825247
12352 1 1 0.0 -28.496608 -16.365102 124.440655
12353 1 2 0.0 -22.446322 -20.260190 121.975247
12354 1 2 0.0 -28.568276 -17.007712 122.523109
12355 1 2 0.0 -23.743417 -17.572668 123.849621
12356 1 2 0.0 -27.635363 -14.845421 124.820368
12357 1 2 0.0 -30.034963 -15.721958 125.466200
12358 1 2 0.0 -24.337483 -18.455051 120.854225
12359 1 2 0.0 -27.627272 -17.861116 124.996142
12360 1 2 0.0 -25.263598 -19.793355 123.112845
12361 1 1 0.0 -20.270166 -15.454933 122.471593
12362 1 1 0.0 -22.781208 -16.274633 124.500797
12363 1 1 0.0 -23.261366 -10.120859 125.858883
12364 1 1 0.0 -24.489507 -13.193172 124.425637
12365 1 2 0.0 -18.910610 -16.549650 121.989135
12366 1 2 0.0 -24.695033 -13.684382 122.499834
12367 1 2 0.0 -19.930983 -14.150941 123.875339
12368 1 2 0.0 -23.559144 -11.764763 124.833485
12369 1 2 0.0 -25.925258 -12.686922 125.431099
12370 1 2 0.0 -20.723387 -14.836773 120.878171
12371 1 2 0.0 -23.665241 -14.619631 124.982363
12372 1 2 0.0 -21.547028 -16.268375 123.109883
12373 1 1 0.0 -16.550712 -11.933051 122.549331
12374 1 1 0.0 -18.901682 -12.927928 124.541786
12375 1 1 0.0 -18.996265 -7.306952 125.994520
12376 1 1 0.0 -20.419448 -10.101305 124.503837
12377 1 2 0.0 -15.337636 -12.874408 122.049999
12378 1 2 0.0 -20.745031 -10.451420 122.585075
12379 1 2 0.0 -16.075244 -10.776935 123.960033
12380 1 2 0.0 -19.418875 -8.768363 124.943468
12381 1 2 0.0 -21.753215 -9.737639 125.493026
12382 1 2 0.0 -17.042438 -11.284591 120.988157
12383 1 2 0.0 -19.654877 -11.437577 125.038693
12384 1 2 0.0 -17.786107 -12.790215 123.165945
12385 1 1 0.0 -24.863817 -25.419797 126.048195
12386 1 1 0.0 -27.915090 -25.972879 128.070606
12387 1 1 0.0 -29.389626 -19.212447 129.445306
12388 1 1 0.0 -30.101774 -22.642572 128.048754
12389 1 2 0.0 -23.131143 -26.675636 125.558100
12390 1 2 0.0 -29.925615 -23.357554 126.148212
12391 1 2 0.0 -24.902420 -23.928676 127.444620
12392 1 2 0.0 -29.332748 -21.100281 128.437555
12393 1 2 0.0 -31.881561 -21.934767 129.071671
12394 1 2 0.0 -25.142097 -24.878366 124.463740
12395 1 2 0.0 -29.145991 -24.136578 128.575125
12396 1 2 0.0 -26.304024 -26.159434 126.687939
12397 1 1 0.0 -21.189240 -21.840616 126.059727
12398 1 1 0.0 -24.040641 -22.611845 128.098676
12399 1 1 0.0 -25.201791 -16.251310 129.430029
12400 1 1 0.0 -26.082477 -19.455423 128.029687
12401 1 2 0.0 -19.587604 -22.968837 125.579543
12402 1 2 0.0 -26.044849 -20.005447 126.109321
12403 1 2 0.0 -21.096144 -20.490364 127.455308
12404 1 2 0.0 -25.260179 -17.981866 128.421141
12405 1 2 0.0 -27.750875 -18.893857 129.043513
12406 1 2 0.0 -21.539624 -21.226079 124.458238
12407 1 2 0.0 -25.160285 -20.906793 128.583326
12408 1 2 0.0 -22.565740 -22.647106 126.707051
12409 1 1 0.0 -17.526383 -18.249461 126.055924
12410 1 1 0.0 -20.182433 -19.232313 128.104216
12411 1 1 0.0 -20.999485 -13.310782 129.437799
12412 1 1 0.0 -22.052073 -16.282399 128.027066
12413 1 2 0.0 -16.068418 -19.238969 125.570286
12414 1 2 0.0 -22.141376 -16.680074 126.102531
12415 1 2 0.0 -17.304114 -17.036354 127.446595
12416 1 2 0.0 -21.175039 -14.879988 128.423738
12417 1 2 0.0 -23.606821 -15.871336 129.036162
12418 1 2 0.0 -17.931184 -17.579692 124.460415
12419 1 2 0.0 -21.179313 -17.671187 128.584658
12420 1 2 0.0 -18.841131 -19.120339 126.707961
12421 1 1 0.0 -13.875438 -14.646136 126.036535
12422 1 1 0.0 -16.340203 -15.834584 128.087594
12423 1 1 0.0 -16.782385 -10.391321 129.469130
12424 1 1 0.0 -18.010679 -13.123351 128.040716
12425 1 2 0.0 -12.574072 -15.485573 125.529715
12426 1 2 0.0 -18.215512 -13.381060 126.127396
12427 1 2 0.0 -13.526754 -13.566177 127.417902
12428 1 2 0.0 -17.077214 -11.794797 128.445520
12429 1 2 0.0 -19.449711 -12.866774 129.049131
12430 1 2 0.0 -14.316664 -13.939315 124.470417
12431 1 2 0.0 -17.203015 -14.429834 128.579211
12432 1 2 0.0 -15.130154 -15.579183 126.690730
12433 1 1 0.0 -22.137215 -28.171947 129.593809
12434 1 1 0.0 -25.373642 -28.811513 131.557535
12435 1 1 0.0 -27.153033 -22.386758 132.999229
12436 1 1 0.0 -27.728599 -25.639777 131.547626
12437 1 2 0.0 -20.294787 -29.322710 129.108783
12438 1 2 0.0 -27.452629 -26.262749 129.639986
12439 1 2 0.0 -22.270269 -26.797776 131.008069
12440 1 2 0.0 -26.988443 -24.168970 131.971858
12441 1 2 0.0 -29.642074 -24.995500 132.542687
12442 1 2 0.0 -22.375435 -27.595462 128.012745
12443 1 2 0.0 -26.716497 -27.081775 132.069311
12444 1 2 0.0 -23.642331 -28.925095 130.200851
12445 1 1 0.0 -18.431834 -24.650936 129.663109
12446 1 1 0.0 -21.444882 -25.544251 131.682893
12447 1 1 0.0 -22.937620 -19.474159 133.034812
12448 1 1 0.0 -23.654457 -22.534822 131.618719
12449 1 2 0.0 -16.725257 -25.673652 129.183839
12450 1 2 0.0 -23.506854 -22.990808 129.695532
12451 1 2 0.0 -18.447871 -23.407152 131.060994
12452 1 2 0.0 -22.877295 -21.112456 132.021913
12453 1 2 0.0 -25.448166 -22.052219 132.620826
12454 1 2 0.0 -18.737722 -23.993018 128.062251
12455 1 2 0.0 -22.678857 -23.940728 132.170510
12456 1 2 0.0 -19.857211 -25.490749 130.301256
12457 1 1 0.0 -14.796884 -21.057971 129.640255
12458 1 1 0.0 -17.588655 -22.194379 131.707636
12459 1 1 0.0 -18.755912 -16.513560 133.016715
12460 1 1 0.0 -19.621728 -19.377201 131.628494
12461 1 2 0.0 -13.240967 -21.943851 129.151436
12462 1 2 0.0 -19.593511 -19.680685 129.705229
12463 1 2 0.0 -14.696011 -19.938796 131.017852
12464 1 2 0.0 -18.804482 -18.005512 132.013992
12465 1 2 0.0 -21.291354 -19.057910 132.641225
12466 1 2 0.0 -15.153697 -20.337495 128.042660
12467 1 2 0.0 -18.699645 -20.727835 132.186954
12468 1 2 0.0 -16.143942 -21.980552 130.306039
12469 1 1 0.0 -11.233521 -17.391872 129.523739
12470 1 1 0.0 -13.803781 -18.763241 131.633401
12471 1 1 0.0 -14.608662 -13.503889 132.943740
12472 1 1 0.0 -15.629978 -16.167470 131.577596
12473 1 2 0.0 -9.843620 -18.131693 129.009430
12474 1 2 0.0 -15.712146 -16.332914 129.669717
12475 1 2 0.0 -11.016797 -16.390387 130.875772
12476 1 2 0.0 -14.770350 -14.847684 131.947571
12477 1 2 0.0 -17.170769 -16.013766 132.605236
12478 1 2 0.0 -11.624365 -16.627897 127.952676
12479 1 2 0.0 -14.778113 -17.444017 132.119729
12480 1 2 0.0 -12.502286 -18.394753 130.215515
12481 1 1 0.0 -19.386491 -30.900485 133.139424
12482 1 1 0.0 -22.796628 -31.618919 135.044465
12483 1 1 0.0 -24.890971 -25.543184 136.553151
12484 1 1 0.0 -25.320397 -28.609439 135.046498
12485 1 2 0.0 -17.436118 -31.946227 132.659466
12486 1 2 0.0 -24.944664 -29.138233 133.131760
12487 1 2 0.0 -19.617103 -29.647805 134.571518
12488 1 2 0.0 -24.615072 -27.215563 135.506161
12489 1 2 0.0 -27.362226 -28.026891 136.013703
12490 1 2 0.0 -19.585828 -30.289350 131.561750
12491 1 2 0.0 -24.251537 -29.998130 135.563497
12492 1 2 0.0 -20.950240 -31.661962 133.713763
12493 1 1 0.0 -15.669588 -27.456520 133.266490
12494 1 1 0.0 -18.833869 -28.463263 135.267109
12495 1 1 0.0 -20.669896 -22.694513 136.639594
12496 1 1 0.0 -21.212483 -25.603248 135.207751
12497 1 2 0.0 -13.859228 -28.374582 132.788135
12498 1 2 0.0 -20.954270 -25.963776 133.281744
12499 1 2 0.0 -15.798584 -26.323021 134.666681
12500 1 2 0.0 -20.486678 -24.237168 135.622686
12501 1 2 0.0 -23.126766 -25.196994 136.198139
12502 1 2 0.0 -15.931752 -26.755842 131.666264
12503 1 2 0.0 -20.182856 -26.962811 135.757694
12504 1 2 0.0 -17.137888 -28.324168 133.895461
12505 1 1 0.0 -12.081829 -23.880619 133.224586
12506 1 1 0.0 -14.999933 -25.160886 135.311056
12507 1 1 0.0 -16.530703 -19.729234 136.595631
12508 1 1 0.0 -17.198504 -22.477603 135.229923
12509 1 2 0.0 -10.428468 -24.664516 132.732587
12510 1 2 0.0 -17.051446 -22.686223 133.307927
12511 1 2 0.0 -12.106898 -22.858471 134.589109
12512 1 2 0.0 -16.447526 -21.141376 135.604245
12513 1 2 0.0 -18.978867 -22.246650 136.246288
12514 1 2 0.0 -12.391018 -23.110276 131.624904
12515 1 2 0.0 -16.226296 -23.789621 135.789249
12516 1 2 0.0 -13.455561 -24.849108 133.904117
12517 1 1 0.0 -8.625329 -20.170620 133.010943
12518 1 1 0.0 -11.292729 -21.714172 135.179209
12519 1 1 0.0 -12.475222 -16.644745 136.418350
12520 1 1 0.0 -13.277473 -19.233760 135.114476
12521 1 2 0.0 -7.146752 -20.813267 132.489146
12522 1 2 0.0 -13.234970 -19.307014 133.212039
12523 1 2 0.0 -8.545833 -19.249981 134.333642
12524 1 2 0.0 -12.498422 -17.927128 135.449623
12525 1 2 0.0 -14.916479 -19.178679 136.161340
12526 1 2 0.0 -8.965752 -19.350550 131.434935
12527 1 2 0.0 -12.380422 -20.480328 135.660247
12528 1 2 0.0 -9.902829 -21.237237 133.740300
12529 1 1 0.0 -16.610982 -33.604763 136.685038
12530 1 1 0.0 -20.183019 -34.394194 138.531394
12531 1 1 0.0 -22.602950 -28.681381 140.107074
12532 1 1 0.0 -22.876445 -31.550988 138.545369
12533 1 2 0.0 -14.554447 -34.545462 136.210149
12534 1 2 0.0 -22.401116 -31.983492 136.623534
12535 1 2 0.0 -16.942325 -32.478222 138.134967
12536 1 2 0.0 -22.212053 -30.239619 139.040464
12537 1 2 0.0 -25.041220 -31.028363 139.484719
12538 1 2 0.0 -16.772761 -32.959508 135.110756
12539 1 2 0.0 -21.750204 -32.884906 139.057684
12540 1 2 0.0 -18.226900 -34.369229 137.226675
12541 1 1 0.0 -12.902369 -30.257236 136.869872
12542 1 1 0.0 -16.207160 -31.368494 138.851326
12543 1 1 0.0 -18.398551 -25.912324 140.244377
12544 1 1 0.0 -18.756269 -28.660476 138.796783
12545 1 2 0.0 -10.989405 -31.071505 136.392431
12546 1 2 0.0 -18.386845 -28.924138 136.867955
12547 1 2 0.0 -13.148255 -29.237944 138.272368
12548 1 2 0.0 -18.088174 -27.355885 139.223458
12549 1 2 0.0 -20.786308 -28.327914 139.775452
12550 1 2 0.0 -13.121622 -29.514459 135.270277
12551 1 2 0.0 -17.671909 -29.972739 139.344878
12552 1 2 0.0 -14.407469 -31.147075 137.489667
12553 1 1 0.0 -9.381612 -26.717791 136.808918
12554 1 1 0.0 -12.416416 -28.131961 138.914476
12555 1 1 0.0 -14.324211 -22.958051 140.174547
12556 1 1 0.0 -14.782548 -25.583720 138.831352
12557 1 2 0.0 -7.631381 -27.401452 136.313738
12558 1 2 0.0 -14.515282 -25.696774 136.910625
12559 1 2 0.0 -9.537312 -25.795866 138.160365
12560 1 2 0.0 -14.104445 -24.287786 139.194498
12561 1 2 0.0 -16.669421 -25.437600 139.851351
12562 1 2 0.0 -9.643480 -25.898372 135.207148
12563 1 2 0.0 -13.759427 -26.856678 139.391545
12564 1 2 0.0 -10.776235 -27.726243 137.502194
12565 1 1 0.0 -6.051788 -22.983286 136.498147
12566 1 1 0.0 -8.807779 -24.688023 138.725016
12567 1 1 0.0 -10.382836 -19.814428 139.892960
12568 1 1 0.0 -10.953744 -22.322678 138.651355
12569 1 2 0.0 -4.484503 -23.531390 135.968862
12570 1 2 0.0 -10.784437 -22.303745 136.754360
12571 1 2 0.0 -6.114965 -22.145962 137.791512
12572 1 2 0.0 -10.262129 -21.033661 138.951675
12573 1 2 0.0 -12.687328 -22.361866 139.717445
12574 1 2 0.0 -6.341580 -22.108039 134.917194
12575 1 2 0.0 -10.010637 -23.539334 139.200765
12576 1 2 0.0 -7.332580 -24.107387 137.265084
12577 1 1 0.0 -13.809573 -36.283688 140.230652
12578 1 1 0.0 -17.531107 -37.135838 142.018323
12579 1 1 0.0 -20.288036 -31.800694 143.660997
12580 1 1 0.0 -20.395401 -34.463368 142.044241
12581 1 2 0.0 -11.648652 -37.119229 139.760833
12582 1 2 0.0 -19.820770 -34.797495 140.115308
12583 1 2 0.0 -14.244942 -35.288126 141.698416
12584 1 2 0.0 -19.778289 -33.240304 142.574767
12585 1 2 0.0 -22.677548 -33.998817 142.955734
12586 1 2 0.0 -13.935304 -35.604999 138.659761
12587 1 2 0.0 -19.210936 -35.740831 142.551870
12588 1 2 0.0 -15.470883 -37.045543 140.739587
12589 1 1 0.0 -10.129954 -33.052865 140.473254
12590 1 1 0.0 -13.564023 -34.259301 142.435543
12591 1 1 0.0 -16.123455 -29.127501 143.849160
12592 1 1 0.0 -16.285278 -31.706084 142.385815
12593 1 2 0.0 -8.115603 -33.764227 139.996727
12594 1 2 0.0 -15.804071 -31.871463 140.454167
12595 1 2 0.0 -10.496836 -32.151879 141.878055
12596 1 2 0.0 -15.681491 -30.468384 142.824231
12597 1 2 0.0 -18.426092 -31.444471 143.352765
12598 1 2 0.0 -10.307168 -32.268702 138.874290
12599 1 2 0.0 -15.145373 -32.969989 142.932062
12600 1 2 0.0 -11.665445 -33.958991 141.083872
12601 1 1 0.0 -6.696902 -29.570143 140.393249
12602 1 1 0.0 -9.838346 -31.107820 142.517895
12603 1 1 0.0 -12.137110 -26.200485 143.753463
12604 1 1 0.0 -12.374133 -28.695767 142.432780
12605 1 2 0.0 -4.850458 -30.155452 139.894888
12606 1 2 0.0 -11.985220 -28.712507 140.513322
12607 1 2 0.0 -6.988152 -28.751797 141.731622
12608 1 2 0.0 -11.775750 -27.445132 142.784751
12609 1 2 0.0 -14.363126 -28.630841 143.456414
12610 1 2 0.0 -6.911683 -28.702388 138.789392
12611 1 2 0.0 -11.299317 -29.929230 142.993840
12612 1 2 0.0 -8.106379 -30.612347 141.100272
12613 1 1 0.0 -3.514458 -25.831396 139.985351
12614 1 1 0.0 -6.350152 -27.685863 142.270823
12615 1 1 0.0 -8.332983 -23.013979 143.367570
12616 1 1 0.0 -8.659873 -25.435077 142.188235
12617 1 2 0.0 -1.858562 -26.287841 139.448577
12618 1 2 0.0 -8.361455 -25.323878 140.296681
12619 1 2 0.0 -3.726038 -25.080003 141.249382
12620 1 2 0.0 -8.062788 -24.168285 142.453726
12621 1 2 0.0 -10.484237 -25.563999 143.273550
12622 1 2 0.0 -3.753212 -24.901743 138.399454
12623 1 2 0.0 -7.669957 -26.622009 142.741283
12624 1 2 0.0 -4.792873 -27.006468 140.789869
12625 1 1 0.0 -10.980592 -38.935626 143.776267
12626 1 1 0.0 -14.838349 -39.841618 145.505253
12627 1 1 0.0 -17.944762 -34.900093 147.214919
12628 1 1 0.0 -17.875177 -37.344940 145.543113
12629 1 2 0.0 -8.717075 -39.665779 143.311516
12630 1 2 0.0 -17.201702 -37.578607 143.607082
12631 1 2 0.0 -11.523470 -38.076169 145.261866
12632 1 2 0.0 -17.312074 -36.216319 146.109070
12633 1 2 0.0 -20.268856 -36.936543 146.426750
12634 1 2 0.0 -11.072034 -38.224380 142.208766
12635 1 2 0.0 -16.631371 -38.563984 146.046056
12636 1 2 0.0 -12.680057 -39.688883 144.252499
12637 1 1 0.0 -7.352007 -35.843079 144.076636
12638 1 1 0.0 -10.903368 -37.134726 146.019759
12639 1 1 0.0 -13.844403 -32.339900 147.453942
12640 1 1 0.0 -13.798681 -34.739420 145.974847
12641 1 2 0.0 -5.237546 -36.452459 143.601023
12642 1 2 0.0 -13.205147 -34.805070 144.040378
12643 1 2 0.0 -7.844256 -35.064759 145.483741
12644 1 2 0.0 -13.266175 -33.574321 146.425003
12645 1 2 0.0 -16.045028 -34.545873 146.930078
12646 1 2 0.0 -7.488136 -35.018315 142.478303
12647 1 2 0.0 -12.602278 -35.953773 146.519246
12648 1 2 0.0 -8.911060 -36.759197 144.678077
12649 1 1 0.0 -4.028701 -32.438653 143.977580
12650 1 1 0.0 -7.266084 -34.088778 146.121315
12651 1 1 0.0 -9.970457 -29.457277 147.332380
12652 1 1 0.0 -9.973683 -31.814077 146.034209
12653 1 2 0.0 -2.086810 -32.927690 143.476039
12654 1 2 0.0 -9.461579 -31.733694 144.116020
12655 1 2 0.0 -4.460759 -31.727481 145.302879
12656 1 2 0.0 -9.462241 -30.614023 146.375005
12657 1 2 0.0 -12.060156 -31.826500 147.061477
12658 1 2 0.0 -4.196545 -31.523254 142.371637
12659 1 2 0.0 -8.846385 -33.007621 146.596136
12660 1 2 0.0 -5.446610 -33.508006 144.698350
12661 1 1 0.0 -1.015676 -28.717238 143.472555
12662 1 1 0.0 -3.921661 -30.709285 145.816631
12663 1 1 0.0 -6.327980 -26.245024 146.842181
12664 1 1 0.0 -6.397539 -28.572275 145.725114
12665 1 2 0.0 0.728574 -29.085258 142.928293
12666 1 2 0.0 -5.967466 -28.368638 143.839003
12667 1 2 0.0 -1.381807 -28.054605 144.707251
12668 1 2 0.0 -5.902451 -27.332558 145.955778
12669 1 2 0.0 -8.308644 -28.786121 146.829655
12670 1 2 0.0 -1.202742 -27.733778 141.881713
12671 1 2 0.0 -5.360195 -29.729828 146.281801
12672 1 2 0.0 -2.285702 -29.936369 144.314654
12673 1 1 0.0 -8.121639 -41.558226 147.321881
12674 1 1 0.0 -12.101100 -42.508334 148.992182
12675 1 1 0.0 -15.570994 -37.978078 150.768842
12676 1 1 0.0 -15.312744 -40.193319 149.041985
12677 1 2 0.0 -5.757343 -42.182606 146.862199
12678 1 2 0.0 -14.541090 -40.324431 147.098856
12679 1 2 0.0 -8.775779 -40.840420 148.825315
12680 1 2 0.0 -14.810924 -39.165778 149.643373
12681 1 2 0.0 -17.811715 -39.839049 149.897766
12682 1 2 0.0 -8.180887 -40.815565 145.757771
12683 1 2 0.0 -14.008110 -41.351603 149.540242
12684 1 2 0.0 -9.851360 -42.296350 147.765411
12685 1 1 0.0 -4.568046 -38.627407 147.680017
12686 1 1 0.0 -8.223630 -39.993397 149.603976
12687 1 1 0.0 -11.561097 -35.549312 151.058725
12688 1 1 0.0 -11.295269 -37.759534 149.563879
12689 1 2 0.0 -2.354845 -39.135787 147.205319
12690 1 2 0.0 -10.588896 -37.723959 147.626590
12691 1 2 0.0 -5.190413 -37.976493 149.089428
12692 1 2 0.0 -10.841566 -36.673193 150.025776
12693 1 2 0.0 -13.641529 -37.630964 150.507391
12694 1 2 0.0 -4.664162 -37.762929 146.082316
12695 1 2 0.0 -10.041227 -38.922955 150.106430
12696 1 2 0.0 -6.143228 -39.546665 148.272283
12697 1 1 0.0 -1.378444 -35.324729 147.561911
12698 1 1 0.0 -4.700150 -37.075292 149.724735
12699 1 1 0.0 -7.825792 -32.729509 150.911296
12700 1 1 0.0 -7.581814 -34.939136 149.635637
12701 1 2 0.0 0.657972 -35.719843 147.057189
12702 1 2 0.0 -6.944828 -34.760734 147.718718
12703 1 2 0.0 -1.957056 -34.724664 148.874135
12704 1 2 0.0 -7.165079 -33.795341 149.965258
12705 1 2 0.0 -9.760764 -35.024759 150.666540
12706 1 2 0.0 -1.499399 -34.362318 145.953881
12707 1 2 0.0 -6.401238 -36.092342 150.198431
12708 1 2 0.0 -2.797815 -36.414060 148.296428
12709 1 1 0.0 1.441203 -31.644097 146.959759
12710 1 1 0.0 -1.524906 -33.760572 149.362438
12711 1 1 0.0 -4.371208 -29.509937 150.316791
12712 1 1 0.0 -4.169181 -31.736190 149.261994
12713 1 2 0.0 3.273335 -31.927410 146.408008
12714 1 2 0.0 -3.604582 -31.439820 147.381324
12715 1 2 0.0 0.913779 -31.073350 148.165121
12716 1 2 0.0 -3.784104 -30.528751 149.457830
12717 1 2 0.0 -6.162642 -32.029756 150.385759
12718 1 2 0.0 1.306804 -30.607207 145.363972
12719 1 2 0.0 -3.083958 -32.864911 149.822319
12720 1 2 0.0 0.186074 -32.899799 147.839439
12721 1 1 0.0 -5.229298 -44.148143 150.867496
12722 1 1 0.0 -9.314169 -45.131428 152.479111
12723 1 1 0.0 -13.163686 -41.032510 154.322764
12724 1 1 0.0 -12.703787 -43.005113 152.540856
12725 1 2 0.0 -2.766074 -44.666140 150.412882
12726 1 2 0.0 -11.834909 -43.031548 150.590630
12727 1 2 0.0 -5.998839 -43.578128 152.388764
12728 1 2 0.0 -12.271300 -42.085990 153.177676
12729 1 2 0.0 -15.301243 -42.702784 153.368781
12730 1 2 0.0 -5.258926 -43.375583 149.306776
12731 1 2 0.0 -11.336316 -44.099752 153.034428
12732 1 2 0.0 -6.980437 -44.863818 151.278323
12733 1 1 0.0 -1.777387 -41.405178 151.283399
12734 1 1 0.0 -5.522584 -42.833358 153.188193
12735 1 1 0.0 -9.273114 -38.755440 154.663507
12736 1 1 0.0 -8.773325 -40.765073 153.152911
12737 1 2 0.0 0.533059 -41.813623 150.809615
12738 1 2 0.0 -7.953638 -40.626704 151.212801
12739 1 2 0.0 -2.535159 -40.886947 152.695115
12740 1 2 0.0 -8.406722 -39.764284 153.626548
12741 1 2 0.0 -11.213334 -40.698103 154.084704
12742 1 2 0.0 -1.834724 -40.502017 149.686329
12743 1 2 0.0 -7.460233 -41.875919 153.693614
12744 1 2 0.0 -3.360400 -42.319928 151.866488
12745 1 1 0.0 1.251822 -38.230372 151.146242
12746 1 1 0.0 -2.141280 -40.068009 153.328155
12747 1 1 0.0 -5.705309 -36.018723 154.490212
12748 1 1 0.0 -5.199404 -38.071632 153.237066
12749 1 2 0.0 3.381623 -38.534305 150.638340
12750 1 2 0.0 -4.435632 -37.794191 151.321415
12751 1 2 0.0 0.520217 -37.745830 152.445392
12752 1 2 0.0 -4.885922 -36.990345 153.555511
12753 1 2 0.0 -7.465311 -38.225882 154.271603
12754 1 2 0.0 1.177862 -37.221496 149.536125
12755 1 2 0.0 -3.964738 -39.184095 153.800727
12756 1 2 0.0 -0.161257 -39.331706 151.894506
12757 1 1 0.0 3.851401 -34.616648 150.446963
12758 1 1 0.0 0.836411 -36.842976 152.908245
12759 1 1 0.0 -2.467480 -32.812098 153.791401
12760 1 1 0.0 -1.978274 -34.929556 152.798873
12761 1 2 0.0 5.770630 -34.819671 149.887724
12762 1 2 0.0 -1.275818 -34.539982 150.923645
12763 1 2 0.0 3.155098 -34.141341 151.622991
12764 1 2 0.0 -1.711999 -33.760097 152.959881
12765 1 2 0.0 -4.049214 -35.297071 153.941864
12766 1 2 0.0 3.771113 -33.526389 148.846231
12767 1 2 0.0 -0.844957 -36.030276 153.362838
12768 1 2 0.0 2.618380 -35.900616 151.364223
12769 1 1 0.0 -41.557531 0.548204 111.671061
12770 1 1 0.0 -43.187376 1.037222 114.045582
12771 1 1 0.0 -41.211384 9.304230 115.018323
12772 1 1 0.0 -43.425216 5.406610 113.952075
12773 1 2 0.0 -40.957416 -1.521165 111.150552
12774 1 2 0.0 -44.093101 4.311035 112.094120
12775 1 2 0.0 -40.658036 2.494363 112.960476
12776 1 2 0.0 -42.233534 7.041052 114.128289
12777 1 2 0.0 -44.020698 6.694699 115.142129
12778 1 2 0.0 -42.011530 0.985178 110.066261
12779 1 2 0.0 -43.206526 3.529660 114.506561
12780 1 2 0.0 -42.570517 0.210133 112.507018
12781 1 1 0.0 -37.797996 3.326587 111.335988
12782 1 1 0.0 -39.386182 3.826287 113.489928
12783 1 1 0.0 -37.128394 11.388509 114.697885
12784 1 1 0.0 -39.559902 7.951852 113.392048
12785 1 2 0.0 -37.256510 1.384447 110.850319
12786 1 2 0.0 -40.383383 7.026637 111.488604
12787 1 2 0.0 -36.738254 5.045727 112.717739
12788 1 2 0.0 -38.266579 9.376256 113.713057
12789 1 2 0.0 -40.117459 9.194206 114.476186
12790 1 2 0.0 -38.342466 3.796659 109.730711
12791 1 2 0.0 -39.330347 6.152091 113.956773
12792 1 2 0.0 -38.836048 3.054688 112.038370
12793 1 1 0.0 -33.780664 5.691982 111.446488
12794 1 1 0.0 -35.349714 6.188627 113.380250
12795 1 1 0.0 -32.841889 12.985390 114.860854
12796 1 1 0.0 -35.465165 10.021802 113.315046
12797 1 2 0.0 -33.292034 3.901324 110.979934
12798 1 2 0.0 -36.417863 9.259748 111.382897
12799 1 2 0.0 -32.579155 7.179372 112.915607
12800 1 2 0.0 -34.078975 11.234537 113.778770
12801 1 2 0.0 -35.998944 11.201017 114.302335
12802 1 2 0.0 -34.395355 6.178549 109.863501
12803 1 2 0.0 -35.228072 8.325088 113.867437
12804 1 2 0.0 -34.850162 5.481384 112.016046
12805 1 1 0.0 -29.501310 7.637622 112.009862
12806 1 1 0.0 -31.081796 8.131177 113.709301
12807 1 1 0.0 -28.347325 14.083989 115.518021
12808 1 1 0.0 -31.143417 11.621458 113.715991
12809 1 2 0.0 -29.058731 6.021711 111.547973
12810 1 2 0.0 -32.200116 11.017107 111.770020
12811 1 2 0.0 -28.173592 8.882825 113.567235
12812 1 2 0.0 -29.668734 12.611595 114.329761
12813 1 2 0.0 -31.670196 12.726669 114.609054
12814 1 2 0.0 -30.164984 8.122794 110.473413
12815 1 2 0.0 -30.902595 10.054407 114.232654
12816 1 2 0.0 -30.613686 7.491598 112.438573
12817 1 1 0.0 -39.668440 -2.839433 115.216675
12818 1 1 0.0 -41.577800 -2.425963 117.532511
12819 1 1 0.0 -39.897784 5.644698 118.572245
12820 1 1 0.0 -42.013532 1.842994 117.450947
12821 1 2 0.0 -38.925208 -4.830529 114.701235
12822 1 2 0.0 -42.570180 0.800208 115.585894
12823 1 2 0.0 -38.860318 -0.962939 116.523925
12824 1 2 0.0 -40.820279 3.439958 117.662592
12825 1 2 0.0 -42.790707 3.093384 118.613145
12826 1 2 0.0 -40.071102 -2.378000 113.615266
12827 1 2 0.0 -41.728458 -0.000500 118.000747
12828 1 2 0.0 -40.793299 -3.200062 116.019930
12829 1 1 0.0 -35.745735 -0.033602 114.939370
12830 1 1 0.0 -37.593961 0.342418 117.074144
12831 1 1 0.0 -35.636243 7.743311 118.302668
12832 1 1 0.0 -37.954874 4.372176 116.981080
12833 1 2 0.0 -35.070385 -1.891331 114.454615
12834 1 2 0.0 -38.658150 3.506279 115.074815
12835 1 2 0.0 -34.786444 1.623519 116.323426
12836 1 2 0.0 -36.670000 5.779954 117.313830
12837 1 2 0.0 -38.686077 5.554139 118.053499
12838 1 2 0.0 -36.232346 0.471718 113.334724
12839 1 2 0.0 -37.666594 2.601598 117.543957
12840 1 2 0.0 -36.883005 -0.353379 115.632576
12841 1 1 0.0 -31.609678 2.430442 115.030819
12842 1 1 0.0 -33.416041 2.758788 116.983669
12843 1 1 0.0 -31.203488 9.431886 118.439770
12844 1 1 0.0 -33.703728 6.502584 116.916475
12845 1 2 0.0 -30.999058 0.728547 114.561085
12846 1 2 0.0 -34.530215 5.805110 114.985595
12847 1 2 0.0 -30.514896 3.864944 116.486863
12848 1 2 0.0 -32.334394 7.719372 117.369024
12849 1 2 0.0 -34.400534 7.600842 117.907398
12850 1 2 0.0 -32.161124 2.962270 113.445746
12851 1 2 0.0 -33.416879 4.830284 117.469732
12852 1 2 0.0 -32.764905 2.147929 115.614124
12853 1 1 0.0 -27.256772 4.547098 115.497066
12854 1 1 0.0 -29.047195 4.828866 117.255109
12855 1 1 0.0 -26.595698 10.701267 118.992631
12856 1 1 0.0 -29.262119 8.238411 117.252870
12857 1 2 0.0 -26.706908 3.022736 115.027689
12858 1 2 0.0 -30.189389 7.702388 115.312341
12859 1 2 0.0 -26.039770 5.751032 117.025105
12860 1 2 0.0 -27.811790 9.254600 117.831813
12861 1 2 0.0 -29.938315 9.243188 118.165159
12862 1 2 0.0 -27.853078 5.086921 113.955672
12863 1 2 0.0 -28.981718 6.690342 117.773172
12864 1 2 0.0 -28.439685 4.304999 115.963358
12865 1 1 0.0 -37.745030 -6.205648 118.762289
12866 1 1 0.0 -39.919008 -5.862013 121.019441
12867 1 1 0.0 -38.547883 2.000323 122.126168
12868 1 1 0.0 -40.551609 -1.696372 120.949819
12869 1 2 0.0 -36.861475 -8.118518 118.251919
12870 1 2 0.0 -40.995382 -2.683115 119.077668
12871 1 2 0.0 -37.033253 -4.403427 120.087374
12872 1 2 0.0 -39.365381 -0.141870 121.196895
12873 1 2 0.0 -41.503140 -0.482775 122.084160
12874 1 2 0.0 -38.096781 -5.719241 117.164271
12875 1 2 0.0 -40.200870 -3.505748 121.494933
12876 1 2 0.0 -38.973241 -6.584483 119.532842
12877 1 1 0.0 -33.686588 -3.389492 118.542751
12878 1 1 0.0 -35.780631 -3.129813 120.658361
12879 1 1 0.0 -34.139028 4.100227 121.907451
12880 1 1 0.0 -36.329833 0.802160 120.570112
12881 1 2 0.0 -32.879059 -5.163584 118.058911
12882 1 2 0.0 -36.911280 -0.002607 118.661027
12883 1 2 0.0 -32.833220 -1.797878 119.929113
12884 1 2 0.0 -35.062343 2.188777 120.914602
12885 1 2 0.0 -37.228034 1.925721 121.630812
12886 1 2 0.0 -34.116216 -2.849333 116.938737
12887 1 2 0.0 -35.982493 -0.938659 121.131141
12888 1 2 0.0 -34.914749 -3.752293 119.226781
12889 1 1 0.0 -29.459239 -0.843924 118.615151
12890 1 1 0.0 -31.489368 -0.674911 120.587089
12891 1 1 0.0 -29.591262 5.867453 122.018686
12892 1 1 0.0 -31.952505 2.978436 120.517903
12893 1 2 0.0 -28.727204 -2.458552 118.142235
12894 1 2 0.0 -32.651169 2.345911 118.588292
12895 1 2 0.0 -28.477155 0.535323 120.058120
12896 1 2 0.0 -30.609300 4.195191 120.959277
12897 1 2 0.0 -32.806376 3.998808 121.512461
12898 1 2 0.0 -29.948767 -0.268167 117.027990
12899 1 2 0.0 -31.614509 1.331042 121.072028
12900 1 2 0.0 -30.692063 -1.192996 119.212201
12901 1 1 0.0 -25.060215 1.426623 118.984270
12902 1 1 0.0 -27.047701 1.507199 120.800916
12903 1 1 0.0 -24.901483 7.294572 122.467241
12904 1 1 0.0 -27.421260 4.835845 120.789750
12905 1 2 0.0 -24.402531 -0.008409 118.507404
12906 1 2 0.0 -28.217505 4.367075 118.854662
12907 1 2 0.0 -23.960399 2.588043 120.482975
12908 1 2 0.0 -26.004897 5.874449 121.333865
12909 1 2 0.0 -28.241600 5.744341 121.721264
12910 1 2 0.0 -25.590929 2.018843 117.437931
12911 1 2 0.0 -27.098834 3.307164 121.313690
12912 1 2 0.0 -26.305725 1.094307 119.488143
12913 1 1 0.0 -35.789773 -9.551983 122.307904
12914 1 1 0.0 -38.214458 -9.272834 124.506370
12915 1 1 0.0 -37.164662 -1.630138 125.680090
12916 1 1 0.0 -39.043482 -5.213435 124.448691
12917 1 2 0.0 -34.768366 -11.386589 121.802602
12918 1 2 0.0 -39.373090 -6.141259 122.569442
12919 1 2 0.0 -35.178923 -7.828295 123.650824
12920 1 2 0.0 -37.872215 -3.705994 124.731198
12921 1 2 0.0 -40.162685 -4.035826 125.555176
12922 1 2 0.0 -36.091211 -9.040257 120.713276
12923 1 2 0.0 -38.627439 -6.987934 124.989119
12924 1 2 0.0 -37.113399 -9.944966 123.045754
12925 1 1 0.0 -31.621052 -6.741394 122.146133
12926 1 1 0.0 -33.947677 -6.591223 124.242578
12927 1 1 0.0 -32.637165 0.459084 125.512233
12928 1 1 0.0 -34.686387 -2.758973 124.159143
12929 1 2 0.0 -30.682886 -8.432551 121.663207
12930 1 2 0.0 -35.144602 -3.500991 122.247238
12931 1 2 0.0 -30.878682 -5.218522 123.534799
12932 1 2 0.0 -33.444507 -1.397690 124.515375
12933 1 2 0.0 -35.745500 -1.691997 125.208125
12934 1 2 0.0 -31.994546 -6.166798 120.542750
12935 1 2 0.0 -34.279554 -4.469439 124.718325
12936 1 2 0.0 -32.932366 -7.142707 122.820986
12937 1 1 0.0 -27.327868 -4.130193 122.199482
12938 1 1 0.0 -29.569201 -4.112197 124.190509
12939 1 1 0.0 -28.003059 2.292988 125.597602
12940 1 1 0.0 -30.210675 -0.550247 124.119332
12941 1 2 0.0 -26.475034 -5.658998 121.723386
12942 1 2 0.0 -30.779998 -1.117463 122.190990
12943 1 2 0.0 -26.464051 -2.808413 123.629377
12944 1 2 0.0 -28.902113 0.662726 124.549530
12945 1 2 0.0 -31.216125 0.395068 125.117524
12946 1 2 0.0 -27.756577 -3.511656 120.610234
12947 1 2 0.0 -29.820306 -2.172309 124.674323
12948 1 2 0.0 -28.630750 -4.540858 122.810279
12949 1 1 0.0 -22.908183 -1.721646 122.471475
12950 1 1 0.0 -25.080847 -1.832463 124.346723
12951 1 1 0.0 -23.259964 3.865873 125.941851
12952 1 1 0.0 -25.617593 1.415325 124.326629
12953 1 2 0.0 -22.142368 -3.069531 121.987120
12954 1 2 0.0 -26.281181 1.012910 122.396984
12955 1 2 0.0 -21.931615 -0.603928 123.940845
12956 1 2 0.0 -24.244000 2.473019 124.835916
12957 1 2 0.0 -26.577188 2.231381 125.277368
12958 1 2 0.0 -23.374655 -1.078926 120.920191
12959 1 2 0.0 -25.251123 -0.093709 124.854208
12960 1 2 0.0 -24.208949 -2.138757 123.012928
12961 1 1 0.0 -33.804371 -12.879501 125.853518
12962 1 1 0.0 -36.466524 -12.659736 127.993299
12963 1 1 0.0 -35.750205 -5.247557 129.234013
12964 1 1 0.0 -37.491962 -8.709553 127.947562
12965 1 2 0.0 -32.647348 -14.635738 125.353285
12966 1 2 0.0 -37.706372 -9.575849 126.061216
12967 1 2 0.0 -33.298759 -11.238362 127.214273
12968 1 2 0.0 -36.343134 -7.253502 128.265501
12969 1 2 0.0 -38.772614 -7.567197 129.026192
12970 1 2 0.0 -34.056232 -12.342238 124.262282
12971 1 2 0.0 -37.010705 -10.448335 128.483305
12972 1 2 0.0 -35.215876 -13.282777 126.558666
12973 1 1 0.0 -29.549468 -10.089521 125.749515
12974 1 1 0.0 -32.096115 -10.042375 127.826794
12975 1 1 0.0 -31.130946 -3.180240 129.117016
12976 1 1 0.0 -33.025655 -6.311761 127.748175
12977 1 2 0.0 -28.482109 -11.698396 125.267503
12978 1 2 0.0 -33.359393 -6.989551 125.833450
12979 1 2 0.0 -28.922898 -8.638453 127.140486
12980 1 2 0.0 -31.817116 -4.979737 128.116147
12981 1 2 0.0 -34.239990 -5.299675 128.785438
12982 1 2 0.0 -29.867661 -9.480888 124.146763
12983 1 2 0.0 -32.558820 -7.991267 128.305509
12984 1 2 0.0 -30.936601 -10.525070 126.415192
12985 1 1 0.0 -25.214546 -7.427728 125.783813
12986 1 1 0.0 -27.655204 -7.552885 127.793929
12987 1 1 0.0 -26.437380 -1.290881 129.176518
12988 1 1 0.0 -28.477666 -4.083188 127.720760
12989 1 2 0.0 -24.241565 -8.872122 125.304536
12990 1 2 0.0 -28.916195 -4.584743 125.793688
12991 1 2 0.0 -24.474290 -6.165521 127.200634
12992 1 2 0.0 -27.211732 -2.877515 128.139784
12993 1 2 0.0 -29.629538 -3.210273 128.722587
12994 1 2 0.0 -25.583367 -6.767431 124.192478
12995 1 2 0.0 -28.033818 -5.679540 128.276619
12996 1 2 0.0 -26.580356 -7.895289 126.408357
12997 1 1 0.0 -20.798296 -4.896222 125.958679
12998 1 1 0.0 -23.144939 -5.189187 127.892531
12999 1 1 0.0 -21.667848 0.416547 129.416461
13000 1 1 0.0 -23.848855 -2.022054 127.863509
13001 1 2 0.0 -19.924211 -6.159134 125.466835
13002 1 2 0.0 -24.378120 -2.358891 125.939305
13003 1 2 0.0 -19.950762 -3.823359 127.398715
13004 1 2 0.0 -22.526270 -0.948383 128.337968
13005 1 2 0.0 -24.943082 -1.294821 128.833473
13006 1 2 0.0 -21.201557 -4.204640 124.402450
13007 1 2 0.0 -23.436634 -3.511295 128.394726
13008 1 2 0.0 -22.147393 -5.393012 126.537712
13009 1 1 0.0 -31.789923 -16.188887 129.399132
13010 1 1 0.0 -34.676724 -16.023555 131.480229
13011 1 1 0.0 -34.305909 -8.852517 132.787935
13012 1 1 0.0 -35.898928 -12.185631 131.446434
13013 1 2 0.0 -30.499345 -17.866590 128.903968
13014 1 2 0.0 -35.997302 -12.987986 129.552990
13015 1 2 0.0 -31.393681 -14.634155 130.777722
13016 1 2 0.0 -34.779716 -10.785123 131.799804
13017 1 2 0.0 -37.335119 -11.077847 132.497207
13018 1 2 0.0 -31.993059 -15.625971 127.811287
13019 1 2 0.0 -35.352327 -13.887787 131.977491
13020 1 2 0.0 -33.282022 -16.598729 130.071579
13021 1 1 0.0 -27.472055 -13.434009 129.352897
13022 1 1 0.0 -30.226596 -13.483626 131.411011
13023 1 1 0.0 -29.620564 -6.817826 132.721798
13024 1 1 0.0 -31.348386 -9.856567 131.337207
13025 1 2 0.0 -26.276881 -14.961222 128.871799
13026 1 2 0.0 -31.556521 -10.468746 129.419661
13027 1 2 0.0 -26.965913 -12.057695 130.746173
13028 1 2 0.0 -30.180590 -8.557557 131.716920
13029 1 2 0.0 -32.712518 -8.897758 132.362751
13030 1 2 0.0 -27.735777 -12.791742 127.750776
13031 1 2 0.0 -30.820974 -11.504486 131.892693
13032 1 2 0.0 -28.927935 -13.899671 130.009397
13033 1 1 0.0 -23.118615 -10.736119 129.368144
13034 1 1 0.0 -25.747161 -10.996855 131.397348
13035 1 1 0.0 -24.893214 -4.883733 132.755434
13036 1 1 0.0 -26.753098 -7.620203 131.322189
13037 1 2 0.0 -22.026176 -12.097506 128.885687
13038 1 2 0.0 -27.059414 -8.055747 129.396385
13039 1 2 0.0 -22.507041 -9.535528 130.771890
13040 1 2 0.0 -25.537421 -6.425190 131.730037
13041 1 2 0.0 -28.046454 -6.817145 132.327650
13042 1 2 0.0 -23.428353 -10.034982 127.774723
13043 1 2 0.0 -26.254749 -9.190504 131.878914
13044 1 2 0.0 -24.540490 -11.256055 130.006435
13045 1 1 0.0 -18.729019 -8.096149 129.445883
13046 1 1 0.0 -21.238894 -8.562377 131.438338
13047 1 1 0.0 -20.122922 -3.052484 132.891071
13048 1 1 0.0 -22.113534 -5.475565 131.400389
13049 1 2 0.0 -17.746667 -9.276273 128.946551
13050 1 2 0.0 -22.506770 -5.747503 129.481626
13051 1 2 0.0 -18.016136 -7.069274 130.856584
13052 1 2 0.0 -20.849811 -4.388879 131.840020
13053 1 2 0.0 -23.337942 -4.833680 132.389578
13054 1 2 0.0 -19.069849 -7.357143 127.884709
13055 1 2 0.0 -21.654098 -6.944955 131.935244
13056 1 2 0.0 -20.119796 -8.667700 130.062497
13057 1 1 0.0 -29.747020 -19.480511 132.944747
13058 1 1 0.0 -32.845852 -19.364729 134.967158
13059 1 1 0.0 -32.832621 -12.445370 136.341858
13060 1 1 0.0 -34.265495 -15.642209 134.945306
13061 1 2 0.0 -28.324823 -21.079462 132.454651
13062 1 2 0.0 -34.247155 -16.378345 133.044764
13063 1 2 0.0 -29.464174 -18.015953 134.341171
13064 1 2 0.0 -33.182902 -14.301294 135.334107
13065 1 2 0.0 -35.851514 -14.568351 135.968223
13066 1 2 0.0 -29.902402 -18.891916 131.360292
13067 1 2 0.0 -33.653224 -17.306751 135.471677
13068 1 2 0.0 -31.312556 -19.893253 133.584491
13069 1 1 0.0 -25.388934 -16.774934 132.956278
13070 1 1 0.0 -28.339462 -16.915166 134.995228
13071 1 1 0.0 -28.106139 -10.453724 136.326581
13072 1 1 0.0 -29.655024 -13.393605 134.926239
13073 1 2 0.0 -24.067278 -18.221082 132.476095
13074 1 2 0.0 -29.736515 -13.938858 133.005873
13075 1 2 0.0 -25.007751 -15.476263 134.351860
13076 1 2 0.0 -28.535180 -12.131268 135.317692
13077 1 2 0.0 -31.163696 -12.486511 135.940065
13078 1 2 0.0 -25.599019 -16.099443 131.354789
13079 1 2 0.0 -29.066394 -15.009287 135.479877
13080 1 2 0.0 -26.906623 -17.266662 133.603602
13081 1 1 0.0 -21.039721 -14.055144 132.952476
13082 1 1 0.0 -23.844958 -14.444046 135.000768
13083 1 1 0.0 -23.369954 -8.485314 136.334351
13084 1 1 0.0 -25.036742 -11.161182 134.923618
13085 1 2 0.0 -19.828557 -15.334938 132.466838
13086 1 2 0.0 -25.209445 -11.530361 132.999083
13087 1 2 0.0 -20.561866 -12.918181 134.343147
13088 1 2 0.0 -23.878736 -9.980095 135.320290
13089 1 2 0.0 -26.466775 -10.425505 135.932713
13090 1 2 0.0 -21.291077 -13.314014 131.356967
13091 1 2 0.0 -24.482935 -12.705119 135.481210
13092 1 2 0.0 -22.510944 -14.623030 133.604513
13093 1 1 0.0 -16.699525 -11.320909 132.933087
13094 1 1 0.0 -19.362146 -11.951720 134.984146
13095 1 1 0.0 -18.623849 -6.540661 136.365682
13096 1 1 0.0 -20.410732 -8.944771 134.937268
13097 1 2 0.0 -15.609038 -12.420475 132.426267
13098 1 2 0.0 -20.666176 -9.152422 133.023948
13099 1 2 0.0 -16.126833 -10.341155 134.314454
13100 1 2 0.0 -19.213491 -7.847945 135.342071
13101 1 2 0.0 -21.760964 -8.384843 135.945683
13102 1 2 0.0 -16.978489 -10.535762 131.366968
13103 1 2 0.0 -19.902806 -10.394333 135.475762
13104 1 2 0.0 -18.125483 -11.962414 133.587282
13105 1 1 0.0 -27.675795 -22.754455 136.490361
13106 1 1 0.0 -30.974044 -22.683333 138.454087
13107 1 1 0.0 -31.330702 -16.026269 139.895781
13108 1 1 0.0 -32.592114 -19.079505 138.444178
13109 1 2 0.0 -26.123822 -24.274381 136.005335
13110 1 2 0.0 -32.456516 -19.747237 136.536538
13111 1 2 0.0 -27.510333 -21.383810 137.904620
13112 1 2 0.0 -31.553083 -17.802195 138.868410
13113 1 2 0.0 -34.322353 -18.038949 139.439239
13114 1 2 0.0 -27.784519 -22.140238 134.909297
13115 1 2 0.0 -31.913661 -20.705361 138.965863
13116 1 2 0.0 -29.307627 -23.166440 137.097403
13117 1 1 0.0 -23.300130 -20.112312 136.559660
13118 1 1 0.0 -26.434771 -20.337024 138.579444
13119 1 1 0.0 -26.587719 -14.087954 139.931363
13120 1 1 0.0 -27.945749 -16.922961 138.515271
13121 1 2 0.0 -21.853306 -21.477981 136.080391
13122 1 2 0.0 -27.899621 -17.400016 136.592084
13123 1 2 0.0 -23.048415 -18.894159 137.957546
13124 1 2 0.0 -26.880990 -15.700916 138.918465
13125 1 2 0.0 -29.593777 -16.066047 139.517378
13126 1 2 0.0 -23.457434 -19.404018 134.958803
13127 1 2 0.0 -27.295187 -18.505723 139.067061
13128 1 2 0.0 -24.872718 -20.626076 137.197808
13129 1 1 0.0 -18.977783 -17.384755 136.536807
13130 1 1 0.0 -21.948577 -17.894446 138.604188
13131 1 1 0.0 -21.867336 -12.095515 139.913267
13132 1 1 0.0 -23.328509 -14.706082 138.525046
13133 1 2 0.0 -17.648680 -18.584399 136.047988
13134 1 2 0.0 -23.366191 -15.008536 136.601781
13135 1 2 0.0 -18.638678 -16.313430 137.914404
13136 1 2 0.0 -22.235497 -13.542146 138.910543
13137 1 2 0.0 -24.890461 -14.035335 139.537776
13138 1 2 0.0 -19.171372 -16.604419 134.939211
13139 1 2 0.0 -22.718330 -16.223359 139.083505
13140 1 2 0.0 -20.491674 -17.996189 137.202591
13141 1 1 0.0 -14.709626 -14.570385 136.420291
13142 1 1 0.0 -17.514599 -15.357161 138.529953
13143 1 1 0.0 -17.170057 -10.047746 139.840292
13144 1 1 0.0 -18.740086 -12.429500 138.474148
13145 1 2 0.0 -13.511259 -15.591697 135.905982
13146 1 2 0.0 -18.855899 -12.573413 136.566269
13147 1 2 0.0 -14.282680 -13.638903 137.772324
13148 1 2 0.0 -17.616841 -11.325365 138.844123
13149 1 2 0.0 -20.211813 -11.948165 139.501787
13150 1 2 0.0 -14.927100 -13.740251 134.849228
13151 1 2 0.0 -18.182557 -13.859328 139.016281
13152 1 2 0.0 -16.164317 -15.277072 137.112067
13153 1 1 0.0 -25.575936 -26.010526 140.035975
13154 1 1 0.0 -29.060788 -25.979085 141.941016
13155 1 1 0.0 -29.800063 -19.595176 143.449703
13156 1 1 0.0 -30.878604 -22.497429 141.943049
13157 1 2 0.0 -23.895966 -27.451092 139.556018
13158 1 2 0.0 -30.625331 -23.094632 140.028312
13159 1 2 0.0 -25.531868 -24.737559 141.468070
13160 1 2 0.0 -29.890127 -21.287766 142.402713
13161 1 2 0.0 -32.747466 -21.489569 142.910255
13162 1 2 0.0 -25.639237 -25.370827 138.458302
13163 1 2 0.0 -30.133261 -24.083427 142.460049
13164 1 2 0.0 -27.266821 -26.418041 140.610315
13165 1 1 0.0 -21.205582 -23.446103 140.163042
13166 1 1 0.0 -24.512303 -23.749082 142.163661
13167 1 1 0.0 -25.065294 -17.720511 143.536146
13168 1 1 0.0 -26.220488 -20.444602 142.104303
13169 1 2 0.0 -19.634904 -24.731875 139.684687
13170 1 2 0.0 -26.045815 -20.852209 140.178296
13171 1 2 0.0 -21.087893 -22.311375 141.563233
13172 1 2 0.0 -25.217985 -19.266486 142.519237
13173 1 2 0.0 -28.002684 -19.636332 143.094691
13174 1 2 0.0 -21.310992 -22.705450 138.562816
13175 1 2 0.0 -25.507199 -21.993718 142.654245
13176 1 2 0.0 -22.826073 -23.977825 140.792013
13177 1 1 0.0 -16.932989 -20.725067 140.121138
13178 1 1 0.0 -20.058090 -21.348096 142.207608
13179 1 1 0.0 -20.385427 -15.714363 143.492183
13180 1 1 0.0 -21.628433 -18.254919 142.126475
13181 1 2 0.0 -15.486798 -21.846061 139.629139
13182 1 2 0.0 -21.529660 -18.490275 140.204479
13183 1 2 0.0 -16.737741 -19.721427 141.485660
13184 1 2 0.0 -20.607763 -17.111370 142.500797
13185 1 2 0.0 -23.317524 -17.646640 143.142839
13186 1 2 0.0 -17.069349 -19.906268 138.521456
13187 1 2 0.0 -20.961000 -19.745259 142.685801
13188 1 2 0.0 -18.482801 -21.375602 140.800668
13189 1 1 0.0 -12.759761 -17.844851 139.907495
13190 1 1 0.0 -15.696616 -18.778904 142.075760
13191 1 1 0.0 -15.761686 -13.573796 143.314902
13192 1 1 0.0 -17.101743 -15.929821 142.011027
13193 1 2 0.0 -11.453902 -18.790325 139.385698
13194 1 2 0.0 -17.075981 -16.010500 140.108590
13195 1 2 0.0 -12.484213 -16.962826 141.230194
13196 1 2 0.0 -16.060019 -14.821211 142.346175
13197 1 2 0.0 -18.690589 -15.523690 143.057892
13198 1 2 0.0 -12.915934 -16.970774 138.331487
13199 1 2 0.0 -16.493639 -17.340085 142.556799
13200 1 2 0.0 -14.236684 -18.611906 140.636851
13201 1 1 0.0 -23.446657 -29.248232 143.581590
13202 1 1 0.0 -27.104886 -29.251324 145.427946
13203 1 1 0.0 -28.240155 -23.151861 147.003626
13204 1 1 0.0 -29.124137 -25.895584 145.441921
13205 1 2 0.0 -21.640425 -30.609032 143.106701
13206 1 2 0.0 -28.752896 -26.420158 143.520086
13207 1 2 0.0 -23.528081 -28.076801 145.031519
13208 1 2 0.0 -28.193371 -24.757699 145.937016
13209 1 2 0.0 -31.125951 -24.919815 146.381270
13210 1 2 0.0 -23.465943 -28.583286 142.007307
13211 1 2 0.0 -28.310979 -27.440424 145.954235
13212 1 2 0.0 -25.189133 -29.647451 144.123227
13213 1 1 0.0 -19.105130 -26.776210 143.766424
13214 1 1 0.0 -22.571544 -27.151055 145.747878
13215 1 1 0.0 -23.538786 -21.351363 147.140929
13216 1 1 0.0 -24.478913 -23.958367 145.693335
13217 1 2 0.0 -17.411934 -27.982673 143.288983
13218 1 2 0.0 -24.174805 -24.295279 143.764507
13219 1 2 0.0 -19.126150 -25.727891 145.168920
13220 1 2 0.0 -23.545989 -22.827897 146.120010
13221 1 2 0.0 -26.389999 -23.197182 146.672004
13222 1 2 0.0 -19.159582 -26.003667 142.166829
13223 1 2 0.0 -23.702002 -25.473055 146.241429
13224 1 2 0.0 -20.766330 -27.321694 144.386218
13225 1 1 0.0 -14.905810 -24.076375 143.705469
13226 1 1 0.0 -18.173667 -24.805089 145.811027
13227 1 1 0.0 -18.924622 -19.342023 147.071099
13228 1 1 0.0 -19.936684 -21.807776 145.727903
13229 1 2 0.0 -13.343466 -25.120300 143.210289
13230 1 2 0.0 -19.699970 -21.975641 143.807176
13231 1 2 0.0 -14.859683 -23.142533 145.056917
13232 1 2 0.0 -18.995847 -20.687912 146.091050
13233 1 2 0.0 -21.748031 -21.259451 146.747902
13234 1 2 0.0 -14.985406 -23.219819 142.103700
13235 1 2 0.0 -19.211131 -23.270913 146.288096
13236 1 2 0.0 -16.484616 -24.761447 144.398746
13237 1 1 0.0 -10.851028 -21.144994 143.394699
13238 1 1 0.0 -13.909054 -22.217419 145.621568
13239 1 1 0.0 -14.399607 -17.119175 146.789512
13240 1 1 0.0 -15.496367 -19.446056 145.547907
13241 1 2 0.0 -9.438211 -22.017203 142.865413
13242 1 2 0.0 -15.326948 -19.463961 143.650912
13243 1 2 0.0 -10.732727 -20.313665 144.688064
13244 1 2 0.0 -14.543821 -18.335852 145.848226
13245 1 2 0.0 -17.197846 -19.111658 146.613997
13246 1 2 0.0 -10.945892 -20.227914 141.813746
13247 1 2 0.0 -14.836854 -20.837006 146.097317
13248 1 2 0.0 -12.343524 -21.967482 144.161636
13249 1 1 0.0 -21.286633 -32.466746 147.127204
13250 1 1 0.0 -25.104347 -32.498953 148.914875
13251 1 1 0.0 -26.649922 -26.695884 150.557548
13252 1 1 0.0 -27.327173 -29.273226 148.940793
13253 1 2 0.0 -19.355850 -33.747287 146.657384
13254 1 2 0.0 -26.837805 -29.723069 147.011860
13255 1 2 0.0 -21.497807 -31.400868 148.594968
13256 1 2 0.0 -26.461566 -28.211416 149.471319
13257 1 2 0.0 -29.456101 -28.328941 149.852286
13258 1 2 0.0 -21.263527 -31.776895 145.556313
13259 1 2 0.0 -26.445017 -30.775446 149.448421
13260 1 2 0.0 -23.072879 -32.853656 147.636139
13261 1 1 0.0 -16.998510 -30.102467 147.369806
13262 1 1 0.0 -20.611641 -30.542473 149.332094
13263 1 1 0.0 -22.008049 -24.980450 150.745711
13264 1 1 0.0 -22.720408 -27.463960 149.282367
13265 1 2 0.0 -15.184175 -31.230224 146.893279
13266 1 2 0.0 -22.286003 -27.728918 147.350718
13267 1 2 0.0 -17.163130 -29.143676 148.774606
13268 1 2 0.0 -21.864668 -26.384993 149.720782
13269 1 2 0.0 -24.754932 -26.748252 150.249317
13270 1 2 0.0 -17.003009 -29.298541 145.770842
13271 1 2 0.0 -21.878855 -28.943362 149.828613
13272 1 2 0.0 -18.692893 -30.657322 147.980424
13273 1 1 0.0 -12.897039 -27.439174 147.289800
13274 1 1 0.0 -16.295593 -28.265583 149.414447
13275 1 1 0.0 -17.485681 -22.978812 150.650015
13276 1 1 0.0 -18.253574 -25.364803 149.329332
13277 1 2 0.0 -11.219587 -28.407729 146.791440
13278 1 2 0.0 -17.877353 -25.464756 147.409874
13279 1 2 0.0 -13.005559 -26.577350 148.628174
13280 1 2 0.0 -17.400331 -24.272042 149.681303
13281 1 2 0.0 -20.182108 -24.873821 150.352965
13282 1 2 0.0 -12.920256 -26.545534 145.685944
13283 1 2 0.0 -17.469044 -26.800482 149.890392
13284 1 2 0.0 -14.497606 -28.154015 147.996824
13285 1 1 0.0 -8.985279 -24.471967 146.881903
13286 1 1 0.0 -12.153331 -25.673488 149.167375
13287 1 1 0.0 -13.085487 -20.684580 150.264122
13288 1 1 0.0 -13.925199 -22.978802 149.084786
13289 1 2 0.0 -7.466219 -25.273710 146.345129
13290 1 2 0.0 -13.609854 -22.934355 147.193233
13291 1 2 0.0 -9.030385 -23.692659 148.145933
13292 1 2 0.0 -13.069751 -21.869982 149.350278
13293 1 2 0.0 -15.734625 -22.712526 150.170102
13294 1 2 0.0 -9.018603 -23.512725 145.296005
13295 1 2 0.0 -13.213583 -24.350788 149.637835
13296 1 2 0.0 -10.486411 -25.344746 147.686421
13297 1 1 0.0 -19.093880 -35.664830 150.672819
13298 1 1 0.0 -23.056207 -35.720337 152.401804
13299 1 1 0.0 -25.027712 -30.226555 154.111471
13300 1 1 0.0 -25.485324 -32.629201 152.439665
13301 1 2 0.0 -17.040245 -36.864502 150.208068
13302 1 2 0.0 -24.877826 -33.002182 150.503634
13303 1 2 0.0 -19.439308 -34.708764 152.158417
13304 1 2 0.0 -24.692766 -31.648018 153.005622
13305 1 2 0.0 -27.735246 -31.715783 153.323302
13306 1 2 0.0 -19.030288 -34.950555 149.105318
13307 1 2 0.0 -24.532656 -34.087127 152.942607
13308 1 2 0.0 -20.915541 -36.035141 151.149051
13309 1 1 0.0 -14.885323 -33.424624 150.973187
13310 1 1 0.0 -18.631321 -33.922635 152.916311
13311 1 1 0.0 -20.472851 -28.607674 154.350494
13312 1 1 0.0 -20.944024 -30.960923 152.871399
13313 1 2 0.0 -12.951297 -34.474303 150.497575
13314 1 2 0.0 -20.378480 -31.152631 150.936930
13315 1 2 0.0 -15.198749 -32.558681 152.380293
13316 1 2 0.0 -20.173506 -29.937536 153.321555
13317 1 2 0.0 -23.096245 -30.289003 153.826630
13318 1 2 0.0 -14.840970 -32.589879 149.374855
13319 1 2 0.0 -20.036642 -32.404077 153.415797
13320 1 2 0.0 -16.604866 -33.984173 151.574629
13321 1 1 0.0 -10.907864 -30.814204 150.874132
13322 1 1 0.0 -14.424287 -31.729808 153.017867
13323 1 1 0.0 -16.069797 -26.625229 154.228931
13324 1 1 0.0 -16.579590 -28.926235 152.930760
13325 1 2 0.0 -9.116502 -31.709256 150.372590
13326 1 2 0.0 -16.062179 -28.957818 151.012572
13327 1 2 0.0 -11.176939 -30.026779 152.199430
13328 1 2 0.0 -15.822129 -27.864182 153.271557
13329 1 2 0.0 -18.619952 -28.489837 153.958028
13330 1 2 0.0 -10.875000 -29.884125 149.268188
13331 1 2 0.0 -15.735224 -30.334210 153.492687
13332 1 2 0.0 -12.522502 -31.553747 151.594902
13333 1 1 0.0 -7.165287 -27.827504 150.369107
13334 1 1 0.0 -10.431563 -29.148278 152.713182
13335 1 1 0.0 -11.821940 -24.271101 153.738732
13336 1 1 0.0 -12.390162 -26.528989 152.621666
13337 1 2 0.0 -5.540930 -28.561883 149.824844
13338 1 2 0.0 -11.926368 -26.422567 150.735554
13339 1 2 0.0 -7.380412 -27.101656 151.603803
13340 1 2 0.0 -11.640147 -25.424686 152.852330
13341 1 2 0.0 -14.302557 -26.327005 153.726206
13342 1 2 0.0 -7.136565 -26.826824 148.778265
13343 1 2 0.0 -11.625911 -27.882478 153.178353
13344 1 2 0.0 -8.667698 -28.745115 151.211206
13345 1 1 0.0 -16.865550 -38.840705 154.218433
13346 1 1 0.0 -20.956218 -38.913134 155.888734
13347 1 1 0.0 -23.371117 -33.742868 157.665393
13348 1 1 0.0 -23.595117 -35.961835 155.938536
13349 1 2 0.0 -14.690753 -39.958741 153.758751
13350 1 2 0.0 -22.869688 -36.255763 153.995408
13351 1 2 0.0 -17.350089 -37.999060 155.721866
13352 1 2 0.0 -22.884137 -35.066193 156.539925
13353 1 2 0.0 -25.959505 -35.078642 156.794317
13354 1 2 0.0 -16.763762 -38.102671 152.654323
13355 1 2 0.0 -22.569980 -37.373496 156.436793
13356 1 2 0.0 -18.713506 -39.189734 154.661963
13357 1 1 0.0 -12.764999 -36.742325 154.576569
13358 1 1 0.0 -16.628764 -37.290536 156.500528
13359 1 1 0.0 -18.932857 -32.232895 157.955276
13360 1 1 0.0 -19.148376 -34.448588 156.460431
13361 1 2 0.0 -10.712828 -37.714592 154.101871
13362 1 2 0.0 -18.450869 -34.565694 154.523141
13363 1 2 0.0 -13.232887 -35.972838 155.985980
13364 1 2 0.0 -18.471748 -33.485177 156.922327
13365 1 2 0.0 -21.412143 -33.818648 157.403943
13366 1 2 0.0 -12.673030 -35.877396 152.978868
13367 1 2 0.0 -18.173754 -35.854391 157.002981
13368 1 2 0.0 -14.500967 -37.301473 155.168834
13369 1 1 0.0 -8.939989 -34.202532 154.458463
13370 1 1 0.0 -12.560355 -35.198099 156.621287
13371 1 1 0.0 -14.678706 -30.281998 157.807848
13372 1 1 0.0 -14.915437 -32.492412 156.532189
13373 1 2 0.0 -7.036121 -35.026178 153.953741
13374 1 2 0.0 -14.254992 -32.455114 154.615269
13375 1 2 0.0 -9.376078 -33.492111 155.770687
13376 1 2 0.0 -14.262563 -31.464944 156.861810
13377 1 2 0.0 -17.061850 -32.107624 157.563091
13378 1 2 0.0 -8.851226 -33.236620 152.850433
13379 1 2 0.0 -14.010368 -33.872446 157.094983
13380 1 2 0.0 -10.560350 -34.961272 155.192980
13381 1 1 0.0 -5.395037 -31.214091 153.856311
13382 1 1 0.0 -8.746779 -32.643459 156.258990
13383 1 1 0.0 -10.612775 -27.880330 157.213342
13384 1 1 0.0 -10.894051 -30.097965 156.158545
13385 1 2 0.0 -3.666643 -31.884635 153.304560
13386 1 2 0.0 -10.278941 -29.929895 154.277876
13387 1 2 0.0 -5.787436 -30.543307 155.061673
13388 1 2 0.0 -10.258412 -29.001536 156.354381
13389 1 2 0.0 -12.904013 -29.956132 157.282311
13390 1 2 0.0 -5.303393 -30.172551 152.260524
13391 1 2 0.0 -10.076841 -31.433588 156.718871
13392 1 2 0.0 -6.890761 -32.170621 154.735990
13393 1 1 0.0 -14.597585 -41.991840 157.764047
13394 1 1 0.0 -18.798332 -42.074010 159.375663
13395 1 1 0.0 -21.676703 -37.243390 161.219316
13396 1 1 0.0 -21.651607 -39.268739 159.437408
13397 1 2 0.0 -12.303305 -43.027246 157.309434
13398 1 2 0.0 -20.808727 -39.481339 157.487182
13399 1 2 0.0 -15.226599 -41.269722 159.285316
13400 1 2 0.0 -21.031648 -38.464076 160.074228
13401 1 2 0.0 -24.123345 -38.415102 160.265333
13402 1 2 0.0 -14.460444 -41.230972 156.203328
13403 1 2 0.0 -20.551422 -40.631752 159.930980
13404 1 2 0.0 -16.461633 -42.314340 158.174875
13405 1 1 0.0 -10.636722 -40.055063 158.179951
13406 1 1 0.0 -14.601375 -40.644746 160.084744
13407 1 1 0.0 -17.387587 -35.855914 161.560059
13408 1 1 0.0 -17.331495 -37.926003 160.049462
13409 1 2 0.0 -8.468097 -40.950635 157.706167
13410 1 2 0.0 -16.501227 -37.967077 158.109353
13411 1 2 0.0 -11.265373 -39.386049 159.591666
13412 1 2 0.0 -16.758323 -37.027421 160.523100
13413 1 2 0.0 -19.700062 -37.336069 160.981256
13414 1 2 0.0 -10.498566 -39.160691 156.582881
13415 1 2 0.0 -16.287902 -39.293153 160.590165
13416 1 2 0.0 -12.379369 -40.608125 158.763040
13417 1 1 0.0 -6.995845 -37.605672 158.042794
13418 1 1 0.0 -10.704656 -38.670930 160.224706
13419 1 1 0.0 -13.314883 -33.950153 161.386764
13420 1 1 0.0 -13.262120 -36.063820 160.133618
13421 1 2 0.0 -4.981174 -38.360343 157.534892
13422 1 2 0.0 -12.456563 -35.957054 158.217967
13423 1 2 0.0 -7.606183 -36.975185 159.341944
13424 1 2 0.0 -12.723523 -35.075202 160.452063
13425 1 2 0.0 -15.508211 -35.727361 161.168154
13426 1 2 0.0 -6.851198 -36.604484 156.432677
13427 1 2 0.0 -12.295467 -37.415692 160.697279
13428 1 2 0.0 -8.612641 -38.377487 158.791058
13429 1 1 0.0 -3.680198 -34.635267 157.343515
13430 1 1 0.0 -7.103295 -36.161411 159.804797
13431 1 1 0.0 -9.463423 -31.514534 160.687953
13432 1 1 0.0 -9.440845 -33.687652 159.695425
13433 1 2 0.0 -1.849484 -35.246121 156.784276
13434 1 2 0.0 -8.671065 -33.458193 157.820197
13435 1 2 0.0 -4.258046 -34.021388 158.519543
13436 1 2 0.0 -8.929396 -32.602776 159.856433
13437 1 2 0.0 -11.542373 -33.601384 160.838416
13438 1 2 0.0 -3.524236 -33.553239 155.742783
13439 1 2 0.0 -8.570647 -35.006267 160.259389
13440 1 2 0.0 -5.160408 -35.624154 158.260775
13441 1 1 0.0 -40.468091 9.469028 118.567612
13442 1 1 0.0 -41.954707 10.296982 120.942134
13443 1 1 0.0 -38.247750 17.945931 121.914874
13444 1 1 0.0 -41.247697 14.615344 120.848627
13445 1 2 0.0 -40.326860 7.319032 118.047104
13446 1 2 0.0 -42.135484 13.688958 118.990672
13447 1 2 0.0 -39.171259 11.176322 119.857028
13448 1 2 0.0 -39.732520 15.955398 121.024840
13449 1 2 0.0 -41.552356 16.001330 122.038681
13450 1 2 0.0 -40.817540 9.993382 116.962813
13451 1 2 0.0 -41.437609 12.735265 121.403112
13452 1 2 0.0 -41.530070 9.356623 119.403570
13453 1 1 0.0 -36.199182 11.374265 118.232540
13454 1 1 0.0 -37.642816 12.203696 120.386479
13455 1 1 0.0 -33.812160 19.103760 121.594437
13456 1 1 0.0 -36.925600 16.270152 120.288599
13457 1 2 0.0 -36.087858 9.361128 117.746871
13458 1 2 0.0 -37.928722 15.543591 118.385156
13459 1 2 0.0 -34.794652 12.825399 119.614291
13460 1 2 0.0 -35.356310 17.383228 120.609609
13461 1 2 0.0 -37.203053 17.603319 121.372738
13462 1 2 0.0 -36.629872 11.950392 116.627263
13463 1 2 0.0 -37.088308 14.463121 120.853325
13464 1 2 0.0 -37.271415 11.331874 118.934922
13465 1 1 0.0 -31.767283 12.820750 118.343040
13466 1 1 0.0 -33.192885 13.643084 120.276801
13467 1 1 0.0 -29.282589 19.741834 121.757405
13468 1 1 0.0 -32.481618 17.411460 120.211598
13469 1 2 0.0 -31.675016 10.966917 117.876486
13470 1 2 0.0 -33.575862 16.872025 118.279449
13471 1 2 0.0 -30.274119 14.015077 119.812159
13472 1 2 0.0 -30.867134 18.297852 120.675322
13473 1 2 0.0 -32.749422 18.677852 121.198887
13474 1 2 0.0 -32.263006 13.428083 116.760053
13475 1 2 0.0 -32.614811 15.703446 120.763988
13476 1 2 0.0 -32.857049 12.844987 118.912597
13477 1 1 0.0 -27.169723 13.800968 118.906414
13478 1 1 0.0 -28.607158 14.622742 120.605853
13479 1 1 0.0 -24.656939 19.848550 122.414573
13480 1 1 0.0 -27.917032 18.044669 120.612543
13481 1 2 0.0 -27.084864 12.127695 118.444525
13482 1 2 0.0 -29.078943 17.681606 118.666571
13483 1 2 0.0 -25.605365 14.731639 120.463787
13484 1 2 0.0 -26.263975 18.694644 121.226313
13485 1 2 0.0 -28.193906 19.237282 121.505606
13486 1 2 0.0 -27.713582 14.417467 117.369965
13487 1 2 0.0 -28.018709 16.462485 121.129205
13488 1 2 0.0 -28.287483 13.897486 119.335125
13489 1 1 0.0 -39.351408 5.754493 122.113227
13490 1 1 0.0 -41.127245 6.568753 124.429063
13491 1 1 0.0 -37.751553 14.089572 125.468797
13492 1 1 0.0 -40.635089 10.831573 124.347499
13493 1 2 0.0 -39.053579 3.650176 121.597787
13494 1 2 0.0 -41.402892 9.932830 122.482446
13495 1 2 0.0 -38.158789 7.413394 123.420477
13496 1 2 0.0 -39.126434 12.134687 124.559143
13497 1 2 0.0 -41.125297 12.219799 125.509696
13498 1 2 0.0 -39.645461 6.291699 120.511818
13499 1 2 0.0 -40.752977 8.969897 124.897298
13500 1 2 0.0 -40.527493 5.644107 122.916482
13501 1 1 0.0 -34.917243 7.651460 121.835921
13502 1 1 0.0 -36.641426 8.416003 123.970696
13503 1 1 0.0 -33.138504 15.223016 125.199220
13504 1 1 0.0 -36.127622 12.429133 123.877631
13505 1 2 0.0 -34.657039 5.691983 121.351167
13506 1 2 0.0 -37.000598 11.734664 121.971367
13507 1 2 0.0 -33.624148 9.063619 123.219978
13508 1 2 0.0 -34.570157 13.527788 124.210382
13509 1 2 0.0 -36.587642 13.740649 124.950051
13510 1 2 0.0 -35.283849 8.249573 120.231276
13511 1 2 0.0 -36.226704 10.637978 124.440509
13512 1 2 0.0 -36.096667 7.583639 122.529127
13513 1 1 0.0 -30.348188 9.168766 121.927371
13514 1 1 0.0 -32.041735 9.877750 123.880221
13515 1 1 0.0 -28.446391 15.919201 125.336321
13516 1 1 0.0 -31.517890 13.595863 123.813026
13517 1 2 0.0 -30.117701 7.375395 121.457636
13518 1 2 0.0 -32.474990 13.092365 121.882146
13519 1 2 0.0 -28.970626 10.334384 123.383415
13520 1 2 0.0 -29.918997 14.489836 124.265575
13521 1 2 0.0 -31.962313 14.818236 124.803950
13522 1 2 0.0 -30.772415 9.806705 120.342297
13523 1 2 0.0 -31.597243 11.900996 124.366284
13524 1 2 0.0 -31.537139 9.141197 122.510675
13525 1 1 0.0 -25.642032 10.300190 122.393618
13526 1 1 0.0 -27.330024 10.960258 124.151660
13527 1 1 0.0 -23.673449 16.168366 125.889183
13528 1 1 0.0 -26.806972 14.336293 124.149422
13529 1 2 0.0 -25.432716 8.693262 121.924240
13530 1 2 0.0 -27.827792 14.012136 122.208893
13531 1 2 0.0 -24.194673 11.214357 123.921657
13532 1 2 0.0 -25.172100 15.016946 124.728365
13533 1 2 0.0 -27.251361 15.462940 125.061711
13534 1 2 0.0 -26.108351 10.955580 120.852224
13535 1 2 0.0 -26.865916 12.764138 124.669724
13536 1 2 0.0 -26.849334 10.318042 122.859910
13537 1 1 0.0 -38.196603 2.053503 125.658841
13538 1 1 0.0 -40.245883 2.856445 127.915992
13539 1 1 0.0 -37.216644 10.240212 129.022720
13540 1 1 0.0 -39.968204 7.060685 127.846371
13541 1 2 0.0 -37.744916 -0.004584 125.148470
13542 1 2 0.0 -40.613723 6.192410 125.974220
13543 1 2 0.0 -37.114043 3.660577 126.983926
13544 1 2 0.0 -38.475538 8.323840 128.093446
13545 1 2 0.0 -40.636602 8.450460 128.980712
13546 1 2 0.0 -38.435567 2.604153 124.060823
13547 1 2 0.0 -40.014628 5.218213 128.391485
13548 1 2 0.0 -39.477537 1.947553 126.429394
13549 1 1 0.0 -33.627655 3.931373 125.439303
13550 1 1 0.0 -35.616917 4.635139 127.554913
13551 1 1 0.0 -32.459448 11.343248 128.804002
13552 1 1 0.0 -35.308021 8.593246 127.466663
13553 1 2 0.0 -33.220382 2.025163 124.955463
13554 1 2 0.0 -36.048876 7.932288 125.557579
13555 1 2 0.0 -32.452089 5.302327 126.825664
13556 1 2 0.0 -33.772083 9.674972 127.811154
13557 1 2 0.0 -35.943690 9.883625 128.527364
13558 1 2 0.0 -33.931120 4.551261 123.835289
13559 1 2 0.0 -35.343026 6.818459 128.027693
13560 1 2 0.0 -34.905094 3.841072 126.123333
13561 1 1 0.0 -28.951917 5.508672 125.511702
13562 1 1 0.0 -30.898250 6.110151 127.483641
13563 1 1 0.0 -27.638105 12.091522 128.915238
13564 1 1 0.0 -30.565197 9.777645 127.414455
13565 1 2 0.0 -28.584094 3.774427 125.038787
13566 1 2 0.0 -31.383501 9.310101 125.484844
13567 1 2 0.0 -27.696297 6.644554 126.954672
13568 1 2 0.0 -28.991829 10.677204 127.855829
13569 1 2 0.0 -31.179756 10.957719 128.409013
13570 1 2 0.0 -29.306229 6.176202 123.924542
13571 1 2 0.0 -30.589245 8.096108 127.968579
13572 1 2 0.0 -30.230959 5.432782 126.108753
13573 1 1 0.0 -24.167639 6.780475 125.880822
13574 1 1 0.0 -26.091338 7.286418 127.697468
13575 1 1 0.0 -22.751183 12.477111 129.363793
13576 1 1 0.0 -25.740602 10.617546 127.686302
13577 1 2 0.0 -23.833821 5.237611 125.403956
13578 1 2 0.0 -26.619003 10.330905 125.751214
13579 1 2 0.0 -22.843866 7.678314 127.379527
13580 1 2 0.0 -24.134084 11.327392 128.230416
13581 1 2 0.0 -26.346463 11.681151 128.617815
13582 1 2 0.0 -24.558636 7.472937 124.334483
13583 1 2 0.0 -25.754336 9.055292 128.210242
13584 1 2 0.0 -25.455468 6.723676 126.384695
13585 1 1 0.0 -37.006422 -1.634919 129.204455
13586 1 1 0.0 -39.314410 -0.841061 131.402922
13587 1 1 0.0 -36.646205 6.397277 132.576642
13588 1 1 0.0 -39.251401 3.301646 131.345242
13589 1 2 0.0 -36.403281 -3.646206 128.699154
13590 1 2 0.0 -39.772758 2.466371 129.465994
13591 1 2 0.0 -36.039311 -0.082845 130.547375
13592 1 2 0.0 -37.783462 4.522057 131.627749
13593 1 2 0.0 -40.091287 4.692320 132.451728
13594 1 2 0.0 -37.190807 -1.070357 127.609828
13595 1 2 0.0 -39.226550 1.479198 131.885671
13596 1 2 0.0 -38.383583 -1.734175 129.942306
13597 1 1 0.0 -32.330970 0.213807 129.042685
13598 1 1 0.0 -34.570917 0.860623 131.139129
13599 1 1 0.0 -31.775437 7.464377 132.408785
13600 1 1 0.0 -34.468536 4.762079 131.055695
13601 1 2 0.0 -31.778286 -1.639489 128.559759
13602 1 2 0.0 -35.075550 4.135911 129.143790
13603 1 2 0.0 -31.278584 1.541488 130.431351
13604 1 2 0.0 -32.963055 5.824568 131.411927
13605 1 2 0.0 -35.273519 6.031787 132.104677
13606 1 2 0.0 -32.572210 0.855260 127.439302
13607 1 2 0.0 -34.438914 3.004145 131.614877
13608 1 2 0.0 -33.697896 0.103770 129.717538
13609 1 1 0.0 -27.576827 1.841053 129.096034
13610 1 1 0.0 -29.761891 2.340448 131.087061
13611 1 1 0.0 -26.855439 8.259209 132.494154
13612 1 1 0.0 -29.622653 5.957019 131.015883
13613 1 2 0.0 -27.072580 0.164656 128.619938
13614 1 2 0.0 -30.300601 5.525452 129.087542
13615 1 2 0.0 -26.449062 2.946235 130.525929
13616 1 2 0.0 -28.083931 6.860331 131.446082
13617 1 2 0.0 -30.401381 7.096376 132.014076
13618 1 2 0.0 -27.862546 2.537288 127.506786
13619 1 2 0.0 -29.590106 4.288963 131.570875
13620 1 2 0.0 -28.937529 1.720070 129.706831
13621 1 1 0.0 -22.742705 3.243188 129.368026
13622 1 1 0.0 -24.888396 3.602020 131.243275
13623 1 1 0.0 -21.885110 8.775696 132.838403
13624 1 1 0.0 -24.714415 6.889261 131.223181
13625 1 2 0.0 -22.284550 1.762188 128.883671
13626 1 2 0.0 -25.448996 6.638905 129.293535
13627 1 2 0.0 -21.548693 4.124841 130.837397
13628 1 2 0.0 -23.145563 7.626944 131.732468
13629 1 2 0.0 -25.476147 7.892522 132.173920
13630 1 2 0.0 -23.060106 3.971159 127.816742
13631 1 2 0.0 -24.680910 5.336727 131.750760
13632 1 2 0.0 -24.102727 3.115455 129.909479
13633 1 1 0.0 -35.782756 -5.311444 132.750070
13634 1 1 0.0 -38.335426 -4.524533 134.889851
13635 1 1 0.0 -36.042455 2.560365 136.130565
13636 1 1 0.0 -38.487717 -0.446265 134.844114
13637 1 2 0.0 -35.030322 -7.275347 132.249837
13638 1 2 0.0 -38.883343 -1.246216 132.957768
13639 1 2 0.0 -34.936168 -3.817366 134.110825
13640 1 2 0.0 -37.052740 0.728781 135.162053
13641 1 2 0.0 -39.492856 0.944686 135.922744
13642 1 2 0.0 -35.913232 -4.732600 131.158833
13643 1 2 0.0 -38.391499 -2.247852 135.379857
13644 1 2 0.0 -37.247953 -5.401861 133.455218
13645 1 1 0.0 -31.027566 -3.501371 132.646067
13646 1 1 0.0 -33.504539 -2.907874 134.723346
13647 1 1 0.0 -31.086779 3.586345 136.013567
13648 1 1 0.0 -33.610376 0.935344 134.644727
13649 1 2 0.0 -30.331023 -5.302082 132.164055
13650 1 2 0.0 -34.082016 0.345144 132.730001
13651 1 2 0.0 -30.103709 -2.218923 134.037038
13652 1 2 0.0 -32.143745 1.976426 135.012699
13653 1 2 0.0 -34.578751 2.184814 135.681990
13654 1 2 0.0 -31.207482 -2.838566 131.043315
13655 1 2 0.0 -33.515499 -0.805251 135.202061
13656 1 2 0.0 -32.475900 -3.628545 133.311743
13657 1 1 0.0 -26.221786 -1.833690 132.680365
13658 1 1 0.0 -28.632288 -1.431251 134.690480
13659 1 1 0.0 -26.096790 4.422554 136.073070
13660 1 1 0.0 -28.689639 2.134131 134.617312
13661 1 2 0.0 -25.582054 -3.453477 132.201088
13662 1 2 0.0 -29.225734 1.738573 132.690240
13663 1 2 0.0 -25.227499 -0.760126 134.097185
13664 1 2 0.0 -27.194118 3.039478 135.036335
13665 1 2 0.0 -29.626930 3.234256 135.619139
13666 1 2 0.0 -26.440040 -1.109544 131.089030
13667 1 2 0.0 -28.599336 0.479686 135.173170
13668 1 2 0.0 -27.656176 -1.996711 133.304909
13669 1 1 0.0 -21.364587 -0.310733 132.855230
13670 1 1 0.0 -23.719345 -0.092389 134.789083
13671 1 1 0.0 -21.071720 5.064755 136.313013
13672 1 1 0.0 -23.725964 3.152019 134.760061
13673 1 2 0.0 -20.782426 -1.732020 132.363387
13674 1 2 0.0 -24.315265 2.936834 132.835857
13675 1 2 0.0 -20.306234 0.554853 134.295266
13676 1 2 0.0 -22.203492 3.916272 135.234520
13677 1 2 0.0 -24.638274 4.097476 135.730025
13678 1 2 0.0 -21.609750 0.451370 131.299002
13679 1 2 0.0 -23.643524 1.608981 135.291278
13680 1 2 0.0 -22.788938 -0.505892 133.434264
13681 1 1 0.0 -34.526824 -8.976506 136.295684
13682 1 1 0.0 -37.310592 -8.194462 138.376780
13683 1 1 0.0 -35.406886 -1.270793 139.684487
13684 1 1 0.0 -37.679181 -4.183530 138.342986
13685 1 2 0.0 -33.627076 -10.892422 135.800520
13686 1 2 0.0 -37.947738 -4.945978 136.449542
13687 1 2 0.0 -33.805625 -7.543303 137.674274
13688 1 2 0.0 -36.285068 -3.056362 138.696356
13689 1 2 0.0 -38.843654 -2.792907 139.393759
13690 1 2 0.0 -34.604201 -8.383083 134.707838
13691 1 2 0.0 -37.511273 -5.963393 138.874043
13692 1 2 0.0 -36.072143 -9.056009 136.968130
13693 1 1 0.0 -29.717689 -7.214250 136.249448
13694 1 1 0.0 -32.418496 -6.670562 138.307563
13695 1 1 0.0 -30.393683 -0.290883 139.618350
13696 1 1 0.0 -32.734349 -2.887149 138.233759
13697 1 2 0.0 -28.878763 -8.962684 135.768351
13698 1 2 0.0 -33.069218 -3.440274 136.316213
13699 1 2 0.0 -28.927513 -5.978919 137.642725
13700 1 2 0.0 -31.314606 -1.869552 138.613472
13701 1 2 0.0 -33.860473 -1.657509 139.259303
13702 1 2 0.0 -29.837176 -6.530306 134.647328
13703 1 2 0.0 -32.573521 -4.609919 138.789245
13704 1 2 0.0 -31.239635 -7.356053 136.905949
13705 1 1 0.0 -24.886063 -5.515295 136.264696
13706 1 1 0.0 -27.509205 -5.204876 138.293900
13707 1 1 0.0 -25.361083 0.581751 139.651986
13708 1 1 0.0 -27.765744 -1.690922 138.218741
13709 1 2 0.0 -24.111823 -7.079696 135.782239
13710 1 2 0.0 -28.158528 -2.050434 136.292937
13711 1 2 0.0 -24.030696 -4.474244 137.668442
13712 1 2 0.0 -26.321596 -0.785182 138.626589
13713 1 2 0.0 -28.856228 -0.628605 139.224202
13714 1 2 0.0 -25.037836 -4.763966 134.671274
13715 1 2 0.0 -27.616614 -3.331641 138.775466
13716 1 2 0.0 -26.386466 -5.717415 136.902987
13717 1 1 0.0 -20.031578 -3.880680 136.342434
13718 1 1 0.0 -22.582998 -3.796459 138.334890
13719 1 1 0.0 -20.308653 1.344715 139.787623
13720 1 1 0.0 -22.773617 -0.593793 138.296940
13721 1 2 0.0 -19.325885 -5.244390 135.843103
13722 1 2 0.0 -23.216117 -0.774840 136.378178
13723 1 2 0.0 -19.114613 -3.031061 137.753136
13724 1 2 0.0 -21.305833 0.195823 138.736571
13725 1 2 0.0 -23.831412 0.296297 139.286130
13726 1 2 0.0 -20.205575 -3.085684 134.781261
13727 1 2 0.0 -22.640797 -2.127595 138.831796
13728 1 2 0.0 -21.512705 -4.139892 136.959049
13729 1 1 0.0 -33.239285 -12.630337 139.841298
13730 1 1 0.0 -36.240778 -11.851105 141.863710
13731 1 1 0.0 -34.740399 -5.096361 143.238410
13732 1 1 0.0 -36.827000 -7.910435 141.841858
13733 1 2 0.0 -32.194065 -14.497636 139.351203
13734 1 2 0.0 -36.967335 -8.633302 139.941316
13735 1 2 0.0 -32.648215 -11.260824 141.237723
13736 1 2 0.0 -35.481459 -6.833595 142.230659
13737 1 2 0.0 -38.145091 -6.520735 142.864775
13738 1 2 0.0 -33.264504 -12.022101 138.256844
13739 1 2 0.0 -36.586871 -9.667681 142.368229
13740 1 2 0.0 -34.856947 -12.696886 140.481042
13741 1 1 0.0 -28.401470 -10.924875 139.852830
13742 1 1 0.0 -31.313162 -10.427552 141.891779
13743 1 1 0.0 -29.696274 -4.167332 143.223133
13744 1 1 0.0 -31.840935 -6.705516 141.822791
13745 1 2 0.0 -27.421592 -12.621330 139.372647
13746 1 2 0.0 -32.037734 -7.220504 139.902424
13747 1 2 0.0 -27.750023 -9.738510 141.248411
13748 1 2 0.0 -30.475908 -5.713425 142.214244
13749 1 2 0.0 -33.119337 -5.495310 142.836616
13750 1 2 0.0 -28.461433 -10.220014 138.251341
13751 1 2 0.0 -31.613390 -8.409962 142.376429
13752 1 2 0.0 -29.989383 -11.078848 140.500154
13753 1 1 0.0 -23.569264 -9.203625 139.849027
13754 1 1 0.0 -26.392519 -8.980391 141.897320
13755 1 1 0.0 -24.647669 -3.263083 143.230902
13756 1 1 0.0 -26.850722 -5.518080 141.820169
13757 1 2 0.0 -22.661535 -10.713862 139.363389
13758 1 2 0.0 -27.098749 -5.841502 139.895635
13759 1 2 0.0 -22.858168 -8.195967 141.239699
13760 1 2 0.0 -25.465890 -4.613544 142.216842
13761 1 2 0.0 -28.089172 -4.492188 142.829265
13762 1 2 0.0 -23.655423 -8.425788 138.253519
13763 1 2 0.0 -26.641763 -7.144973 142.377762
13764 1 2 0.0 -25.128170 -9.441964 140.501064
13765 1 1 0.0 -18.742760 -7.466328 139.829638
13766 1 1 0.0 -21.478736 -7.510006 141.880697
13767 1 1 0.0 -19.594483 -2.384167 143.262233
13768 1 1 0.0 -21.856402 -4.347943 141.833820
13769 1 2 0.0 -17.914142 -8.774610 139.322818
13770 1 2 0.0 -22.150512 -4.495826 139.920499
13771 1 2 0.0 -17.972840 -6.632592 141.211006
13772 1 2 0.0 -20.451367 -3.534132 142.238623
13773 1 2 0.0 -23.054698 -3.510846 142.842234
13774 1 2 0.0 -18.846419 -6.639568 138.263520
13775 1 2 0.0 -21.671963 -5.872804 142.372314
13776 1 2 0.0 -20.273285 -7.786296 140.483834
13777 1 1 0.0 -31.920286 -16.272991 143.386913
13778 1 1 0.0 -35.126134 -15.494505 145.350639
13779 1 1 0.0 -34.043382 -8.916409 146.792332
13780 1 1 0.0 -35.931658 -11.627095 145.340729
13781 1 2 0.0 -30.731336 -18.091010 142.901886
13782 1 2 0.0 -35.942773 -12.308366 143.433090
13783 1 2 0.0 -31.464043 -14.969960 144.801172
13784 1 2 0.0 -34.642335 -10.603010 145.764962
13785 1 2 0.0 -37.397756 -10.238917 146.335791
13786 1 2 0.0 -31.894429 -15.649761 141.805849
13787 1 2 0.0 -35.618578 -13.360787 145.862415
13788 1 2 0.0 -33.602530 -16.324548 143.993954
13789 1 1 0.0 -27.078939 -14.633258 143.456212
13790 1 1 0.0 -30.188600 -14.178862 145.475996
13791 1 1 0.0 -28.994607 -8.043011 146.827915
13792 1 1 0.0 -30.930330 -10.519802 145.411823
13793 1 2 0.0 -25.959519 -16.278023 142.976943
13794 1 2 0.0 -30.987833 -10.995620 143.488636
13795 1 2 0.0 -26.571242 -13.497696 144.854098
13796 1 2 0.0 -29.627761 -9.555219 145.815017
13797 1 2 0.0 -32.355616 -9.328645 146.413929
13798 1 2 0.0 -27.080303 -13.907708 141.855354
13799 1 2 0.0 -30.635224 -12.205411 145.963613
13800 1 2 0.0 -28.725204 -14.796951 144.094359
13801 1 1 0.0 -22.271301 -12.898647 143.433358
13802 1 1 0.0 -25.282208 -12.757788 145.500740
13803 1 1 0.0 -23.956268 -7.111898 146.809818
13804 1 1 0.0 -25.944474 -9.347322 145.421598
13805 1 2 0.0 -21.231160 -14.355962 142.944540
13806 1 2 0.0 -26.046294 -9.634604 143.498333
13807 1 2 0.0 -21.709822 -11.925266 144.810955
13808 1 2 0.0 -24.626804 -8.445563 145.807095
13809 1 2 0.0 -27.325718 -8.356483 146.434328
13810 1 2 0.0 -22.292615 -12.094938 141.835763
13811 1 2 0.0 -25.674730 -10.960296 145.980057
13812 1 2 0.0 -23.881239 -13.170344 144.099142
13813 1 1 0.0 -17.497925 -11.067603 143.316842
13814 1 1 0.0 -20.406453 -11.232999 145.426505
13815 1 1 0.0 -18.928599 -6.121780 146.736843
13816 1 1 0.0 -20.973928 -8.110341 145.370699
13817 1 2 0.0 -16.547128 -12.322650 142.802534
13818 1 2 0.0 -21.117970 -8.225993 143.462821
13819 1 2 0.0 -16.880720 -10.249679 144.668876
13820 1 2 0.0 -19.639588 -7.273484 145.740675
13821 1 2 0.0 -22.307774 -7.323881 146.398339
13822 1 2 0.0 -17.531861 -10.210126 141.745779
13823 1 2 0.0 -20.736805 -9.626592 145.912832
13824 1 2 0.0 -19.070524 -11.445052 144.008618
13825 1 1 0.0 -30.569479 -19.904344 146.932527
13826 1 1 0.0 -33.966098 -19.124498 148.837568
13827 1 1 0.0 -33.315738 -12.730919 150.346255
13828 1 1 0.0 -34.992961 -15.333465 148.839601
13829 1 2 0.0 -29.238465 -21.672374 146.452570
13830 1 2 0.0 -34.873991 -15.971151 146.924864
13831 1 2 0.0 -30.252791 -18.670611 148.364621
13832 1 2 0.0 -33.767553 -14.364576 149.299265
13833 1 2 0.0 -36.601470 -13.947417 149.806806
13834 1 2 0.0 -30.493784 -19.265993 145.354854
13835 1 2 0.0 -34.605987 -17.042610 149.356601
13836 1 2 0.0 -32.308436 -19.938841 147.506867
13837 1 1 0.0 -25.750026 -18.339373 147.059594
13838 1 1 0.0 -29.044570 -17.924421 149.060213
13839 1 1 0.0 -28.288668 -11.917918 150.432698
13840 1 1 0.0 -30.002453 -14.329988 149.000855
13841 1 2 0.0 -24.492473 -19.932734 146.581239
13842 1 2 0.0 -29.919487 -14.765615 147.074847
13843 1 2 0.0 -25.391156 -17.256474 148.459785
13844 1 2 0.0 -28.770128 -13.394925 149.415789
13845 1 2 0.0 -31.569228 -13.157496 149.991242
13846 1 2 0.0 -25.693753 -17.593376 145.459367
13847 1 2 0.0 -29.638854 -15.996223 149.550797
13848 1 2 0.0 -27.446935 -18.510306 147.688565
13849 1 1 0.0 -20.992382 -16.600435 147.017690
13850 1 1 0.0 -24.178352 -16.537093 149.104159
13851 1 1 0.0 -23.286950 -10.964706 150.388735
13852 1 1 0.0 -25.047040 -13.178656 149.023026
13853 1 2 0.0 -19.820982 -18.006108 146.525690
13854 1 2 0.0 -25.001171 -13.429742 147.101030
13855 1 2 0.0 -20.585945 -15.662232 148.382212
13856 1 2 0.0 -23.804404 -12.281256 149.397348
13857 1 2 0.0 -26.565879 -12.221493 150.039391
13858 1 2 0.0 -20.949537 -15.771465 145.418007
13859 1 2 0.0 -24.715590 -14.777631 149.582353
13860 1 2 0.0 -22.645806 -16.902597 147.697220
13861 1 1 0.0 -16.297560 -14.684677 146.804046
13862 1 1 0.0 -19.366547 -14.965555 148.972312
13863 1 1 0.0 -18.311152 -9.868151 150.211454
13864 1 1 0.0 -20.126354 -11.881021 148.907579
13865 1 2 0.0 -15.225480 -15.888767 146.282249
13866 1 2 0.0 -20.118538 -11.965352 147.005142
13867 1 2 0.0 -15.838845 -13.882508 148.126745
13868 1 2 0.0 -18.870667 -11.022270 149.242726
13869 1 2 0.0 -21.590748 -11.142830 149.954444
13870 1 2 0.0 -16.262181 -13.797462 145.228039
13871 1 2 0.0 -19.835633 -13.389038 149.453350
13872 1 2 0.0 -17.904848 -15.116304 147.533403
13873 1 1 0.0 -29.185992 -23.524086 150.478142
13874 1 1 0.0 -32.759359 -22.740695 152.324497
13875 1 1 0.0 -32.556881 -16.539784 153.900177
13876 1 1 0.0 -34.010015 -19.029331 152.338473
13877 1 2 0.0 -27.714521 -25.241358 150.003253
13878 1 2 0.0 -33.760222 -19.621446 150.416638
13879 1 2 0.0 -29.013690 -22.362539 151.928071
13880 1 2 0.0 -32.856399 -18.118136 152.833568
13881 1 2 0.0 -35.755267 -17.646044 153.277822
13882 1 2 0.0 -29.061884 -22.870540 148.903859
13883 1 2 0.0 -33.547964 -20.712858 152.850787
13884 1 2 0.0 -30.973551 -23.539391 151.019779
13885 1 1 0.0 -24.414556 -22.043159 150.662975
13886 1 1 0.0 -27.880509 -21.664064 152.644429
13887 1 1 0.0 -27.578375 -15.792037 154.037480
13888 1 1 0.0 -29.056950 -18.135991 152.589887
13889 1 2 0.0 -23.020301 -23.585403 150.185535
13890 1 2 0.0 -28.832378 -18.530401 150.661059
13891 1 2 0.0 -24.209727 -21.014831 152.065471
13892 1 2 0.0 -27.902820 -17.232502 153.016562
13893 1 2 0.0 -30.759724 -16.981775 153.568555
13894 1 2 0.0 -24.301661 -21.276972 149.063380
13895 1 2 0.0 -28.623816 -19.782279 153.137981
13896 1 2 0.0 -26.154182 -22.218781 151.282770
13897 1 1 0.0 -19.733030 -20.309174 150.602021
13898 1 1 0.0 -23.081138 -20.318359 152.707579
13899 1 1 0.0 -22.640138 -14.821583 153.967651
13900 1 1 0.0 -24.158602 -17.012125 152.624455
13901 1 2 0.0 -18.431625 -21.664551 150.106841
13902 1 2 0.0 -23.963509 -17.226951 150.703728
13903 1 2 0.0 -19.487233 -19.407081 151.953469
13904 1 2 0.0 -22.999024 -16.120695 152.987602
13905 1 2 0.0 -25.809728 -16.087233 153.644454
13906 1 2 0.0 -19.626630 -19.455533 149.000252
13907 1 2 0.0 -23.764544 -18.597027 153.184648
13908 1 2 0.0 -21.422193 -20.638833 151.295298
13909 1 1 0.0 -15.142885 -18.317985 150.291251
13910 1 1 0.0 -18.359956 -18.707952 152.518119
13911 1 1 0.0 -17.743069 -13.623448 153.686064
13912 1 1 0.0 -19.314398 -15.660157 152.444459
13913 1 2 0.0 -13.950599 -19.473517 149.761965
13914 1 2 0.0 -19.152789 -15.714064 150.547463
13915 1 2 0.0 -14.848640 -17.531524 151.584615
13916 1 2 0.0 -18.145461 -14.780678 152.744778
13917 1 2 0.0 -20.904211 -14.967809 153.510549
13918 1 2 0.0 -15.038387 -17.401953 148.710298
13919 1 2 0.0 -18.969317 -17.160364 152.993869
13920 1 2 0.0 -16.777298 -18.800402 151.058188
13921 1 1 0.0 -27.768354 -27.131695 154.023756
13922 1 1 0.0 -31.503735 -26.342453 155.811427
13923 1 1 0.0 -31.765687 -20.342803 157.454100
13924 1 1 0.0 -32.981157 -22.714300 155.837345
13925 1 2 0.0 -26.157990 -28.797358 153.553936
13926 1 2 0.0 -32.599933 -23.258825 153.908412
13927 1 2 0.0 -27.745459 -26.045340 155.491520
13928 1 2 0.0 -31.907530 -21.863395 156.367871
13929 1 2 0.0 -34.857318 -21.334435 156.748838
13930 1 2 0.0 -27.597491 -26.462939 152.452864
13931 1 2 0.0 -32.442559 -24.371037 156.344973
13932 1 2 0.0 -29.596013 -27.125569 154.532691
13933 1 1 0.0 -23.072235 -25.744510 154.266357
13934 1 1 0.0 -26.695481 -25.397514 156.228646
13935 1 1 0.0 -26.863571 -19.665341 157.642263
13936 1 1 0.0 -28.093157 -21.937652 156.178918
13937 1 2 0.0 -21.542752 -27.235930 153.789831
13938 1 2 0.0 -27.725867 -22.289799 154.247270
13939 1 2 0.0 -23.026894 -24.772748 155.671158
13940 1 2 0.0 -27.025478 -21.067869 156.617334
13941 1 2 0.0 -29.926259 -20.801314 157.145869
13942 1 2 0.0 -22.903808 -24.958413 152.667393
13943 1 2 0.0 -27.589307 -23.563375 156.725165
13944 1 2 0.0 -24.846281 -25.922152 154.876975
13945 1 1 0.0 -18.494125 -24.025179 154.186352
13946 1 1 0.0 -21.990875 -24.101679 156.310999
13947 1 1 0.0 -22.016641 -18.682676 157.546567
13948 1 1 0.0 -23.279499 -20.847809 156.225884
13949 1 2 0.0 -17.064102 -25.331693 153.687992
13950 1 2 0.0 -22.933560 -21.026302 154.306426
13951 1 2 0.0 -18.414841 -23.160176 155.524725
13952 1 2 0.0 -22.211293 -19.964018 156.577855
13953 1 2 0.0 -25.057398 -19.953728 157.249517
13954 1 2 0.0 -18.324693 -23.147441 152.582496
13955 1 2 0.0 -22.821939 -22.418574 156.786944
13956 1 2 0.0 -20.210941 -24.379233 154.893376
13957 1 1 0.0 -14.035957 -21.968257 153.778455
13958 1 1 0.0 -17.388234 -22.460649 156.063927
13959 1 1 0.0 -17.226129 -17.387993 157.160674
13960 1 1 0.0 -18.539399 -19.448064 155.981338
13961 1 2 0.0 -12.724763 -23.077808 153.241681
13962 1 2 0.0 -18.221871 -19.472446 154.089785
13963 1 2 0.0 -13.912481 -21.197472 155.042485
13964 1 2 0.0 -17.465587 -18.549064 156.246830
13965 1 2 0.0 -20.249280 -18.799040 157.066653
13966 1 2 0.0 -13.862294 -21.024277 152.192557
13967 1 2 0.0 -18.139356 -20.940950 156.534387
13968 1 2 0.0 -15.689615 -22.497932 154.582973
13969 1 1 0.0 -26.314360 -30.726386 157.569370
13970 1 1 0.0 -30.195982 -29.928812 159.298356
13971 1 1 0.0 -30.940394 -24.139656 161.008023
13972 1 1 0.0 -31.903805 -26.387757 159.336216
13973 1 2 0.0 -24.566632 -32.339481 157.104619
13974 1 2 0.0 -31.390690 -26.882612 157.400186
13975 1 2 0.0 -26.446186 -29.718416 159.054969
13976 1 2 0.0 -30.918851 -25.599890 159.902174
13977 1 2 0.0 -33.904767 -25.012027 160.219853
13978 1 2 0.0 -26.098706 -30.042481 156.001869
13979 1 2 0.0 -31.286820 -28.016393 159.839159
13980 1 2 0.0 -28.173037 -30.696437 158.045603
13981 1 1 0.0 -21.722619 -29.443270 157.869739
13982 1 1 0.0 -25.488095 -29.124359 159.812863
13983 1 1 0.0 -26.144011 -23.537784 161.247046
13984 1 1 0.0 -27.110047 -25.734728 159.767950
13985 1 2 0.0 -20.059459 -30.884167 157.394127
13986 1 2 0.0 -26.598937 -26.043529 157.833482
13987 1 2 0.0 -21.842565 -28.530196 159.276845
13988 1 2 0.0 -26.137546 -24.900906 160.218107
13989 1 2 0.0 -29.067508 -24.615853 160.723182
13990 1 2 0.0 -21.499857 -28.637575 156.271407
13991 1 2 0.0 -26.534115 -27.339202 160.312349
13992 1 2 0.0 -23.522246 -29.620086 158.471181
13993 1 1 0.0 -17.276987 -27.748917 157.770683
13994 1 1 0.0 -20.908026 -27.887188 159.914419
13995 1 1 0.0 -21.417731 -22.548214 161.125483
13996 1 1 0.0 -22.410254 -24.685834 159.827312
13997 1 2 0.0 -15.719916 -29.008133 157.269142
13998 1 2 0.0 -21.911729 -24.827907 157.909123
13999 1 2 0.0 -17.370499 -26.922058 159.095982
14000 1 2 0.0 -21.442191 -23.811443 160.168108
14001 1 2 0.0 -24.309101 -23.821021 160.854580
14002 1 2 0.0 -17.044952 -26.847647 156.164740
14003 1 2 0.0 -21.888302 -26.242404 160.389239
14004 1 2 0.0 -19.012856 -28.124070 158.491454
14005 1 1 0.0 -12.979858 -25.636588 157.265659
14006 1 1 0.0 -16.453697 -26.224330 159.609734
14007 1 1 0.0 -16.763119 -21.162289 160.635284
14008 1 1 0.0 -17.803436 -23.245237 159.518218
14009 1 2 0.0 -11.551347 -26.702985 156.721396
14010 1 2 0.0 -17.327607 -23.241005 157.632106
14011 1 2 0.0 -13.033917 -24.881464 158.500355
14012 1 2 0.0 -16.833562 -22.327983 159.748881
14013 1 2 0.0 -19.627699 -22.636867 160.622758
14014 1 2 0.0 -12.736690 -24.665477 155.674816
14015 1 2 0.0 -17.348012 -24.731374 160.074905
14016 1 2 0.0 -14.644402 -26.209772 158.107757
14017 1 1 0.0 -24.820846 -34.307036 161.114985
14018 1 1 0.0 -28.831447 -33.498399 162.785285
14019 1 1 0.0 -30.078432 -27.929879 164.561945
14020 1 1 0.0 -30.774207 -30.048814 162.835088
14021 1 2 0.0 -22.937240 -35.866451 160.655302
14022 1 2 0.0 -30.128925 -30.491817 160.891960
14023 1 2 0.0 -25.113128 -33.380907 162.618418
14024 1 2 0.0 -29.887314 -29.326952 163.436477
14025 1 2 0.0 -32.893457 -28.677996 163.690869
14026 1 2 0.0 -24.562783 -33.608138 159.550875
14027 1 2 0.0 -30.076504 -31.647845 163.333345
14028 1 2 0.0 -26.700629 -34.250649 161.558515
14029 1 1 0.0 -20.365074 -33.139213 161.473121
14030 1 1 0.0 -24.256356 -32.844011 163.397079
14031 1 1 0.0 -25.419337 -27.409303 164.851828
14032 1 1 0.0 -26.106126 -29.526864 163.356982
14033 1 2 0.0 -18.569890 -34.529904 160.998423
14034 1 2 0.0 -25.450101 -29.791176 161.419693
14035 1 2 0.0 -20.656606 -32.287134 162.882531
14036 1 2 0.0 -25.238212 -28.731433 163.818879
14037 1 2 0.0 -28.181548 -28.425009 164.300495
14038 1 2 0.0 -20.089321 -32.314276 159.875420
14039 1 2 0.0 -25.456496 -31.109316 163.899533
14040 1 2 0.0 -22.180656 -33.312106 162.065386
14041 1 1 0.0 -16.083511 -31.481062 161.355015
14042 1 1 0.0 -19.833251 -31.675082 163.517838
14043 1 1 0.0 -20.845260 -26.418533 164.704399
14044 1 1 0.0 -21.551630 -28.526380 163.428741
14045 1 2 0.0 -14.401213 -32.694727 160.850293
14046 1 2 0.0 -20.898608 -28.631930 161.511821
14047 1 2 0.0 -16.356684 -30.693505 162.667239
14048 1 2 0.0 -20.693145 -27.663282 163.758362
14049 1 2 0.0 -23.565144 -27.689172 164.459643
14050 1 2 0.0 -15.789180 -30.556814 159.746984
14051 1 2 0.0 -20.964388 -30.068712 163.991535
14052 1 2 0.0 -17.829095 -31.873734 162.089531
14053 1 1 0.0 -11.979011 -29.324549 160.752863
14054 1 1 0.0 -15.559663 -29.999974 163.155542
14055 1 1 0.0 -16.358101 -24.947071 164.109894
14056 1 1 0.0 -17.109527 -27.052393 163.055097
14057 1 2 0.0 -10.435173 -30.350970 160.201112
14058 1 2 0.0 -16.472668 -27.020483 161.174427
14059 1 2 0.0 -12.218037 -28.585094 161.958225
14060 1 2 0.0 -16.253049 -26.118240 163.250933
14061 1 2 0.0 -19.042008 -26.481793 164.178863
14062 1 2 0.0 -11.665609 -28.327061 159.157076
14063 1 2 0.0 -16.598542 -28.532465 163.615423
14064 1 2 0.0 -13.645391 -29.937179 161.632542
14065 1 1 0.0 -23.283306 -37.872045 164.660599
14066 1 1 0.0 -27.403506 -37.049257 166.272215
14067 1 1 0.0 -29.176141 -31.712809 168.115868
14068 1 1 0.0 -29.587023 -33.696202 166.333960
14069 1 2 0.0 -21.265246 -39.376446 164.205986
14070 1 2 0.0 -28.809551 -34.085026 164.383734
14071 1 2 0.0 -23.742380 -37.031591 166.181867
14072 1 2 0.0 -28.808579 -33.043625 166.970780
14073 1 2 0.0 -31.817466 -32.331172 167.161885
14074 1 2 0.0 -22.985807 -37.158447 163.099880
14075 1 2 0.0 -28.805567 -35.263856 166.827531
14076 1 2 0.0 -25.173101 -37.786289 165.071427
14077 1 1 0.0 -18.998696 -36.832017 165.076503
14078 1 1 0.0 -22.997422 -36.555630 166.981296
14079 1 1 0.0 -24.689037 -31.279805 168.456611
14080 1 1 0.0 -25.079264 -33.313555 166.946014
14081 1 2 0.0 -17.073294 -38.172842 164.602719
14082 1 2 0.0 -24.277237 -33.532152 165.005904
14083 1 2 0.0 -19.468831 -36.043502 166.488218
14084 1 2 0.0 -24.326323 -32.559196 167.419652
14085 1 2 0.0 -27.265636 -32.228241 167.877808
14086 1 2 0.0 -18.671506 -35.988255 163.479433
14087 1 2 0.0 -24.353966 -34.873084 167.486717
14088 1 2 0.0 -20.819493 -36.997531 165.659591
14089 1 1 0.0 -14.916394 -35.222572 164.939346
14090 1 1 0.0 -18.767494 -35.465640 167.121258
14091 1 1 0.0 -20.301868 -30.294111 168.283315
14092 1 1 0.0 -20.704714 -32.369704 167.030169
14093 1 2 0.0 -13.111057 -36.392694 164.431443
14094 1 2 0.0 -19.895040 -32.438605 165.114519
14095 1 2 0.0 -15.376926 -34.475621 166.238496
14096 1 2 0.0 -19.966185 -31.519982 167.348615
14097 1 2 0.0 -22.825964 -31.558269 168.064706
14098 1 2 0.0 -14.559902 -34.275886 163.329229
14099 1 2 0.0 -20.051274 -33.897772 167.593830
14100 1 2 0.0 -16.661307 -35.628779 165.687609
14101 1 1 0.0 -11.039716 -33.034380 164.240067
14102 1 1 0.0 -14.710858 -33.788979 166.701349
14103 1 1 0.0 -16.016866 -28.743386 167.584504
14104 1 1 0.0 -16.461973 -30.870551 166.591977
14105 1 2 0.0 -9.383118 -34.024502 163.680827
14106 1 2 0.0 -15.660863 -30.811936 164.716749
14107 1 2 0.0 -11.472088 -32.310633 165.416094
14108 1 2 0.0 -15.729265 -29.920985 166.752985
14109 1 2 0.0 -18.495823 -30.334533 167.734968
14110 1 2 0.0 -10.654796 -32.011176 162.639335
14111 1 2 0.0 -15.895582 -32.345404 167.155941
14112 1 2 0.0 -12.697900 -33.681946 165.157327
14113 1 1 0.0 -37.486408 17.947091 125.464164
14114 1 1 0.0 -38.760283 19.075266 127.838686
14115 1 1 0.0 -33.495694 25.748501 128.811426
14116 1 1 0.0 -37.141482 23.140681 127.745179
14117 1 2 0.0 -37.810665 15.817000 124.943656
14118 1 2 0.0 -38.207659 22.426802 125.887224
14119 1 2 0.0 -35.852878 19.335689 126.753579
14120 1 2 0.0 -35.373657 24.123686 127.921392
14121 1 2 0.0 -37.141072 24.559756 128.935232
14122 1 2 0.0 -37.714967 18.534307 123.859364
14123 1 2 0.0 -37.731115 21.345382 128.299664
14124 1 2 0.0 -38.547722 18.065608 126.300122
14125 1 1 0.0 -32.907735 18.890095 125.129091
14126 1 1 0.0 -34.139314 20.010473 127.283031
14127 1 1 0.0 -28.914907 25.925739 128.490989
14128 1 1 0.0 -32.564699 23.827678 127.185151
14129 1 2 0.0 -33.231778 16.900093 124.643422
14130 1 2 0.0 -33.700557 23.333745 125.281707
14131 1 2 0.0 -31.224090 20.005370 126.510843
14132 1 2 0.0 -30.792818 24.577379 127.506161
14133 1 2 0.0 -32.549073 25.189319 128.269289
14134 1 2 0.0 -33.204504 19.545338 123.523815
14135 1 2 0.0 -33.112060 22.097871 127.749877
14136 1 2 0.0 -33.964012 19.079193 125.831474
14137 1 1 0.0 -28.268499 19.350035 125.239592
14138 1 1 0.0 -29.483994 20.459606 127.173353
14139 1 1 0.0 -24.354068 25.575172 128.653957
14140 1 1 0.0 -27.979267 23.986978 127.108149
14141 1 2 0.0 -28.576908 17.519709 124.773038
14142 1 2 0.0 -29.163890 23.695384 125.176000
14143 1 2 0.0 -26.553500 20.195453 126.708710
14144 1 2 0.0 -26.211980 24.505579 127.571874
14145 1 2 0.0 -27.968572 25.281332 128.095439
14146 1 2 0.0 -28.622074 20.049734 123.656605
14147 1 2 0.0 -28.476518 22.347529 127.660540
14148 1 2 0.0 -29.327577 19.607973 125.809149
14149 1 1 0.0 -23.567710 19.318996 125.802966
14150 1 1 0.0 -24.794881 20.430564 127.502405
14151 1 1 0.0 -19.813622 24.685015 129.311124
14152 1 1 0.0 -23.385277 23.624131 127.509094
14153 1 2 0.0 -23.844540 17.666601 125.341076
14154 1 2 0.0 -24.598071 23.519333 125.563123
14155 1 2 0.0 -21.839859 19.891618 127.360339
14156 1 2 0.0 -21.631142 23.903552 128.122865
14157 1 2 0.0 -23.399302 24.848382 128.402158
14158 1 2 0.0 -23.966325 20.037996 124.266516
14159 1 2 0.0 -23.824700 22.100795 128.025757
14160 1 2 0.0 -24.638589 19.653543 126.231677
14161 1 1 0.0 -37.194348 14.079346 129.009778
14162 1 1 0.0 -38.753625 15.256321 131.325615
14163 1 1 0.0 -33.840101 21.875633 132.365349
14164 1 1 0.0 -37.356596 19.313680 131.244051
14165 1 2 0.0 -37.355848 11.960202 128.494339
14166 1 2 0.0 -38.299651 18.601004 129.378998
14167 1 2 0.0 -35.672997 15.443084 130.317029
14168 1 2 0.0 -35.603081 20.262011 131.455695
14169 1 2 0.0 -37.536915 20.774831 132.406248
14170 1 2 0.0 -37.366043 14.667205 127.408370
14171 1 2 0.0 -37.871932 17.520871 131.793850
14172 1 2 0.0 -38.366666 14.224363 129.813034
14173 1 1 0.0 -32.456060 14.978748 128.732473
14174 1 1 0.0 -33.975578 16.096065 130.867248
14175 1 1 0.0 -29.091246 21.990909 132.095771
14176 1 1 0.0 -32.611082 19.904917 130.774183
14177 1 2 0.0 -32.623168 13.009146 128.247718
14178 1 2 0.0 -33.612938 19.414349 128.867919
14179 1 2 0.0 -30.889624 16.079915 130.116529
14180 1 2 0.0 -30.853851 20.643078 131.106933
14181 1 2 0.0 -32.778410 21.284662 131.846603
14182 1 2 0.0 -32.685517 15.641687 127.127828
14183 1 2 0.0 -33.092893 18.176939 131.337061
14184 1 2 0.0 -33.622489 15.166054 129.425679
14185 1 1 0.0 -27.667650 15.478368 128.823923
14186 1 1 0.0 -29.169193 16.534840 130.776773
14187 1 1 0.0 -24.359173 21.662152 132.232873
14188 1 1 0.0 -27.858311 20.053414 130.709578
14189 1 2 0.0 -27.828074 13.677378 128.354188
14190 1 2 0.0 -28.901272 19.767436 128.778698
14191 1 2 0.0 -26.071722 16.320600 130.279967
14192 1 2 0.0 -26.104621 20.582771 131.162127
14193 1 2 0.0 -28.029569 21.342746 131.700502
14194 1 2 0.0 -27.944821 16.192589 127.238849
14195 1 2 0.0 -28.300154 18.415231 131.262836
14196 1 2 0.0 -28.834731 15.707034 129.407227
14197 1 1 0.0 -22.828299 15.571656 129.290170
14198 1 1 0.0 -24.334932 16.579161 131.048212
14199 1 1 0.0 -19.644256 20.879450 132.785734
14200 1 1 0.0 -23.098360 19.763824 131.045974
14201 1 2 0.0 -22.969319 13.957300 128.820792
14202 1 2 0.0 -24.164999 19.666693 129.105444
14203 1 2 0.0 -21.218259 16.153311 130.818209
14204 1 2 0.0 -21.355391 20.077115 131.624916
14205 1 2 0.0 -23.290165 20.959662 131.958262
14206 1 2 0.0 -23.142826 16.311968 127.748776
14207 1 2 0.0 -23.493893 18.241097 131.566275
14208 1 2 0.0 -24.003537 15.848625 129.756462
14209 1 1 0.0 -36.862145 10.216633 132.555393
14210 1 1 0.0 -38.690905 11.441338 134.812544
14211 1 1 0.0 -34.145197 18.001280 135.919271
14212 1 1 0.0 -37.515931 15.487593 134.742922
14213 1 2 0.0 -36.863446 8.109565 132.045022
14214 1 2 0.0 -38.333012 14.778385 132.870772
14215 1 2 0.0 -35.459421 11.553417 133.880478
14216 1 2 0.0 -35.786622 16.400336 134.989998
14217 1 2 0.0 -37.869941 16.988561 135.877264
14218 1 2 0.0 -36.977149 10.805780 130.957375
14219 1 2 0.0 -37.957347 13.698177 135.288036
14220 1 2 0.0 -38.135908 10.388524 133.325946
14221 1 1 0.0 -31.996331 11.068411 132.335855
14222 1 1 0.0 -33.787796 12.183356 134.451464
14223 1 1 0.0 -29.262102 18.055871 135.700554
14224 1 1 0.0 -32.635245 15.982521 134.363215
14225 1 2 0.0 -32.008358 9.119216 131.852014
14226 1 2 0.0 -33.500865 15.496278 132.454130
14227 1 2 0.0 -30.553533 12.154601 133.722216
14228 1 2 0.0 -30.902677 16.708776 134.707706
14229 1 2 0.0 -32.978659 17.379382 135.423916
14230 1 2 0.0 -32.159443 11.739043 130.731841
14231 1 2 0.0 -33.050959 14.256753 134.924245
14232 1 2 0.0 -33.263315 11.254833 133.019884
14233 1 1 0.0 -27.090836 11.603689 132.408254
14234 1 1 0.0 -28.862364 12.609510 134.380193
14235 1 1 0.0 -24.392622 17.750204 135.811789
14236 1 1 0.0 -27.748695 16.119663 134.311007
14237 1 2 0.0 -27.104424 9.830918 131.935339
14238 1 2 0.0 -28.648376 15.838961 132.381396
14239 1 2 0.0 -25.620390 12.443093 133.851224
14240 1 2 0.0 -26.018733 16.659964 134.752380
14241 1 2 0.0 -28.095205 17.404260 135.305565
14242 1 2 0.0 -27.293365 12.331779 130.821093
14243 1 2 0.0 -28.133661 14.482609 134.865131
14244 1 2 0.0 -28.356288 11.804529 133.005305
14245 1 1 0.0 -22.145012 11.817279 132.777374
14246 1 1 0.0 -23.914972 12.724932 134.594020
14247 1 1 0.0 -19.537063 17.076235 136.260345
14248 1 1 0.0 -22.856343 15.902782 134.582853
14249 1 2 0.0 -22.150668 10.238725 132.300508
14250 1 2 0.0 -23.775827 15.811673 132.647766
14251 1 2 0.0 -20.659178 12.409555 134.276079
14252 1 2 0.0 -21.134788 16.250679 135.126968
14253 1 2 0.0 -23.219396 17.071763 135.514367
14254 1 2 0.0 -22.378008 12.577605 131.231035
14255 1 2 0.0 -23.205594 14.380005 135.106793
14256 1 2 0.0 -23.414941 12.038654 133.281246
14257 1 1 0.0 -36.492692 6.358591 136.101007
14258 1 1 0.0 -38.576064 7.630038 138.299473
14259 1 1 0.0 -34.414211 14.125563 139.473194
14260 1 1 0.0 -37.623969 11.662347 138.241794
14261 1 2 0.0 -36.336019 4.264670 135.595705
14262 1 2 0.0 -38.312697 10.958676 136.362546
14263 1 2 0.0 -35.214541 7.666478 137.443927
14264 1 2 0.0 -35.927998 12.538661 138.524301
14265 1 2 0.0 -38.145265 13.201058 139.348280
14266 1 2 0.0 -36.551402 6.949591 134.506380
14267 1 2 0.0 -37.991471 9.877164 138.782222
14268 1 2 0.0 -37.858992 6.557705 136.838858
14269 1 1 0.0 -31.529128 7.159011 135.939237
14270 1 1 0.0 -33.577660 8.272227 138.035681
14271 1 1 0.0 -29.427925 14.120643 139.305337
14272 1 1 0.0 -32.638975 12.060460 137.952247
14273 1 2 0.0 -31.387769 5.230234 135.456310
14274 1 2 0.0 -33.366405 11.579422 136.040342
14275 1 2 0.0 -30.215933 8.229419 137.327903
14276 1 2 0.0 -30.940287 12.774475 138.308478
14277 1 2 0.0 -33.152188 13.473531 139.001229
14278 1 2 0.0 -31.626835 7.837327 134.335854
14279 1 2 0.0 -32.987949 10.337258 138.511429
14280 1 2 0.0 -32.887751 7.345396 136.614090
14281 1 1 0.0 -26.536325 7.726213 135.992585
14282 1 1 0.0 -28.562947 8.683656 137.983612
14283 1 1 0.0 -24.452087 13.839239 139.390705
14284 1 1 0.0 -27.649509 12.185742 137.912435
14285 1 2 0.0 -26.404241 5.980611 135.516489
14286 1 2 0.0 -28.404380 11.910004 135.984094
14287 1 2 0.0 -25.197344 8.563121 137.422480
14288 1 2 0.0 -25.952576 12.737156 138.342634
14289 1 2 0.0 -28.165103 13.465865 138.910628
14290 1 2 0.0 -26.665693 8.467591 134.403338
14291 1 2 0.0 -27.976306 10.549688 138.467427
14292 1 2 0.0 -27.891221 7.900569 136.603383
14293 1 1 0.0 -21.513804 8.056373 136.264578
14294 1 1 0.0 -23.532191 8.868076 138.139827
14295 1 1 0.0 -19.486933 13.275177 139.734955
14296 1 1 0.0 -22.655618 12.041062 138.119733
14297 1 2 0.0 -21.384732 6.511508 135.780223
14298 1 2 0.0 -23.426844 11.954473 136.190087
14299 1 2 0.0 -20.158178 8.660736 137.733948
14300 1 2 0.0 -20.964865 12.424242 138.629020
14301 1 2 0.0 -23.183870 13.184618 139.070472
14302 1 2 0.0 -21.667291 8.835556 134.713294
14303 1 2 0.0 -22.956646 10.517623 138.647312
14304 1 2 0.0 -22.869488 8.223991 136.806031
14305 1 1 0.0 -36.087979 2.504969 139.646621
14306 1 1 0.0 -38.411806 3.822231 141.786403
14307 1 1 0.0 -34.649399 10.248568 143.027116
14308 1 1 0.0 -37.683829 7.837890 141.740666
14309 1 2 0.0 -35.775317 0.425230 139.146389
14310 1 2 0.0 -38.242171 7.141690 139.854320
14311 1 2 0.0 -34.940001 3.782125 141.007376
14312 1 2 0.0 -36.029802 8.676986 142.058604
14313 1 2 0.0 -38.366455 9.412396 142.819295
14314 1 2 0.0 -36.090970 3.098329 138.055385
14315 1 2 0.0 -37.977149 6.057739 142.276408
14316 1 2 0.0 -37.538357 2.731640 140.351770
14317 1 1 0.0 -31.054850 3.250498 139.542618
14318 1 1 0.0 -33.346328 4.362596 141.619898
14319 1 1 0.0 -29.589029 10.185237 142.910119
14320 1 1 0.0 -32.623512 8.138714 141.541279
14321 1 2 0.0 -30.761691 1.342151 139.060606
14322 1 2 0.0 -33.211002 7.663701 139.626553
14323 1 2 0.0 -29.876904 4.304362 140.933590
14324 1 2 0.0 -30.967369 8.840173 141.909251
14325 1 2 0.0 -33.300649 9.567144 142.578542
14326 1 2 0.0 -31.088076 3.936484 137.939867
14327 1 2 0.0 -32.905031 6.418417 142.098613
14328 1 2 0.0 -32.496661 3.437647 140.208295
14329 1 1 0.0 -26.002924 3.846090 139.576917
14330 1 1 0.0 -28.270558 4.757306 141.587032
14331 1 1 0.0 -24.535943 9.929196 142.969622
14332 1 1 0.0 -27.560116 8.251661 141.513864
14333 1 2 0.0 -25.726356 2.126649 139.097640
14334 1 2 0.0 -28.168711 7.980595 139.586791
14335 1 2 0.0 -24.801099 4.680812 140.993737
14336 1 2 0.0 -25.904937 8.814348 141.932887
14337 1 2 0.0 -28.238999 9.527555 142.515691
14338 1 2 0.0 -26.060406 4.600223 137.985582
14339 1 2 0.0 -27.827581 6.616483 142.069722
14340 1 2 0.0 -27.438823 3.995231 140.201461
14341 1 1 0.0 -20.931893 4.289287 139.751782
14342 1 1 0.0 -23.184661 5.008729 141.685634
14343 1 1 0.0 -19.490302 9.476141 143.209565
14344 1 1 0.0 -22.493673 8.178707 141.656612
14345 1 2 0.0 -20.668877 2.776081 139.259939
14346 1 2 0.0 -23.115455 8.095235 139.732408
14347 1 2 0.0 -19.712208 4.907121 141.191818
14348 1 2 0.0 -20.842504 8.597806 142.131071
14349 1 2 0.0 -23.181409 9.298180 142.626577
14350 1 2 0.0 -21.007495 5.086275 138.195553
14351 1 2 0.0 -22.744868 6.654022 142.187830
14352 1 2 0.0 -22.364897 4.404884 140.330816
14353 1 1 0.0 -35.649290 -1.344393 143.192236
14354 1 1 0.0 -38.199858 0.017794 145.273332
14355 1 1 0.0 -34.852275 6.370351 146.581039
14356 1 1 0.0 -37.697598 4.014189 145.239538
14357 1 2 0.0 -35.182442 -3.408936 142.697072
14358 1 2 0.0 -38.123780 3.327298 143.346094
14359 1 2 0.0 -34.636855 -0.099735 144.570825
14360 1 2 0.0 -36.093771 4.815311 145.592907
14361 1 2 0.0 -38.535903 5.622627 146.290311
14362 1 2 0.0 -35.597289 -0.748211 141.604390
14363 1 2 0.0 -37.916233 2.239843 145.770594
14364 1 2 0.0 -37.175570 -1.089840 143.864682
14365 1 1 0.0 -30.573756 -0.657160 143.146000
14366 1 1 0.0 -33.094544 0.454410 145.204114
14367 1 1 0.0 -29.745627 6.249661 146.514902
14368 1 1 0.0 -32.589690 4.217268 145.130311
14369 1 2 0.0 -30.130305 -2.545062 142.664902
14370 1 2 0.0 -33.035635 3.749062 143.212765
14371 1 2 0.0 -29.536495 0.379425 144.539276
14372 1 2 0.0 -30.984387 4.905872 145.510023
14373 1 2 0.0 -33.425149 5.660244 146.155855
14374 1 2 0.0 -30.543422 0.036479 141.543880
14375 1 2 0.0 -32.802967 2.500202 145.685797
14376 1 2 0.0 -32.090603 -0.468475 143.802500
14377 1 1 0.0 -25.489866 -0.036583 143.161248
14378 1 1 0.0 -27.984950 0.830477 145.190452
14379 1 1 0.0 -24.643096 6.020033 146.548538
14380 1 1 0.0 -27.480094 4.317425 145.115292
14381 1 2 0.0 -25.070027 -1.730848 142.678790
14382 1 2 0.0 -27.940980 4.050756 143.189489
14383 1 2 0.0 -24.430702 0.796251 144.564994
14384 1 2 0.0 -25.875003 4.891540 145.523140
14385 1 2 0.0 -28.316717 5.589327 146.120754
14386 1 2 0.0 -25.476577 0.729807 141.567826
14387 1 2 0.0 -27.687157 2.683007 145.672018
14388 1 2 0.0 -26.998640 0.088565 143.799538
14389 1 1 0.0 -20.397482 0.516245 143.238986
14390 1 1 0.0 -22.871147 1.146977 145.231442
14391 1 1 0.0 -19.544774 5.679036 146.684175
14392 1 1 0.0 -22.368830 4.315744 145.193492
14393 1 2 0.0 -20.001445 -0.967285 142.739654
14394 1 2 0.0 -22.839905 4.234055 143.274730
14395 1 2 0.0 -19.319313 1.148880 144.649688
14396 1 2 0.0 -20.765618 4.771370 145.633123
14397 1 2 0.0 -23.210552 5.412418 146.182681
14398 1 2 0.0 -20.396510 1.330059 141.677813
14399 1 2 0.0 -22.568838 2.789249 145.728348
14400 1 2 0.0 -21.899705 0.581492 143.855601
14401 1 1 0.0 -35.177318 -5.189583 146.737850
14402 1 1 0.0 -37.941126 -3.783337 148.760261
14403 1 1 0.0 -35.023755 2.490948 150.134961
14404 1 1 0.0 -37.666514 0.191223 148.738409
14405 1 2 0.0 -34.557949 -7.237917 146.247755
14406 1 2 0.0 -37.958964 -0.484576 146.837868
14407 1 2 0.0 -34.305662 -3.979151 148.134275
14408 1 2 0.0 -36.120943 0.953636 149.127210
14409 1 2 0.0 -38.655045 1.831783 149.761327
14410 1 2 0.0 -35.071195 -4.590145 145.153395
14411 1 2 0.0 -37.809756 -1.576560 149.264781
14412 1 2 0.0 -36.771466 -4.906827 147.377594
14413 1 1 0.0 -30.085984 -4.563981 146.749382
14414 1 1 0.0 -32.822693 -3.452357 148.788331
14415 1 1 0.0 -29.897845 2.313919 150.119684
14416 1 1 0.0 -32.538000 0.296115 148.719343
14417 1 2 0.0 -29.493703 -6.431419 146.269198
14418 1 2 0.0 -32.840905 -0.164526 146.798976
14419 1 2 0.0 -29.194734 -3.545394 148.144963
14420 1 2 0.0 -30.991615 0.971571 149.110796
14421 1 2 0.0 -33.526354 1.752845 149.733168
14422 1 2 0.0 -29.993021 -3.862709 145.147893
14423 1 2 0.0 -32.682180 -1.417398 149.272981
14424 1 2 0.0 -31.669873 -4.373000 147.396706
14425 1 1 0.0 -24.996735 -3.921754 146.745579
14426 1 1 0.0 -27.705995 -3.096823 148.793872
14427 1 1 0.0 -24.772887 2.111726 150.127454
14428 1 1 0.0 -27.409191 0.383041 148.716721
14429 1 2 0.0 -24.434885 -5.591818 146.259941
14430 1 2 0.0 -27.720946 0.120499 146.792187
14431 1 2 0.0 -24.085647 -3.090520 148.136250
14432 1 2 0.0 -25.862287 0.968732 149.113394
14433 1 2 0.0 -28.398150 1.651178 149.725817
14434 1 2 0.0 -24.913667 -3.143581 145.150070
14435 1 2 0.0 -27.554851 -1.250736 149.274313
14436 1 2 0.0 -26.570430 -3.819403 147.397616
14437 1 1 0.0 -19.909604 -3.262630 146.726190
14438 1 1 0.0 -22.591005 -2.717133 148.777249
14439 1 1 0.0 -19.648900 1.883808 150.158785
14440 1 1 0.0 -22.280090 0.452189 148.730372
14441 1 2 0.0 -19.381601 -4.718453 146.219370
14442 1 2 0.0 -22.599115 0.370989 146.817051
14443 1 2 0.0 -18.978456 -2.613897 148.107558
14444 1 2 0.0 -20.732959 0.944933 149.135175
14445 1 2 0.0 -23.270421 1.527314 149.738786
14446 1 2 0.0 -19.833111 -2.432916 145.160072
14447 1 2 0.0 -22.427764 -1.076670 149.268866
14448 1 2 0.0 -21.473130 -3.246100 147.380385
14449 1 1 0.0 -34.672219 -9.030620 150.283465
14450 1 1 0.0 -37.635765 -7.581172 152.247191
14451 1 1 0.0 -35.164231 -1.389627 153.688884
14452 1 1 0.0 -37.591078 -3.631016 152.237281
14453 1 2 0.0 -33.901887 -11.061724 149.798438
14454 1 2 0.0 -37.748386 -4.293969 150.329642
14455 1 2 0.0 -33.946530 -7.856131 151.697724
14456 1 2 0.0 -36.111750 -2.908039 152.661513
14457 1 2 0.0 -38.724482 -1.960125 153.232342
14458 1 2 0.0 -34.512991 -8.427519 148.702401
14459 1 2 0.0 -37.658010 -5.391478 152.758967
14460 1 2 0.0 -36.326217 -8.719339 150.890506
14461 1 1 0.0 -29.591566 -8.469969 150.352764
14462 1 1 0.0 -32.530843 -7.357711 152.372548
14463 1 1 0.0 -30.045739 -1.621987 153.724467
14464 1 1 0.0 -32.468642 -3.624748 152.308374
14465 1 2 0.0 -28.851893 -10.316923 149.873494
14466 1 2 0.0 -32.627088 -4.077080 150.385188
14467 1 2 0.0 -28.851627 -7.470096 151.750650
14468 1 2 0.0 -30.989170 -2.962731 152.711568
14469 1 2 0.0 -33.604543 -2.155045 153.310481
14470 1 2 0.0 -29.436927 -7.761089 148.751906
14471 1 2 0.0 -32.542792 -5.334388 152.860165
14472 1 2 0.0 -31.234532 -8.275937 150.990911
14473 1 1 0.0 -24.523438 -7.809412 150.329910
14474 1 1 0.0 -27.433672 -7.024591 152.397291
14475 1 1 0.0 -24.925032 -1.795736 153.706370
14476 1 1 0.0 -27.347304 -3.551492 152.318150
14477 1 2 0.0 -23.820895 -9.456255 149.841092
14478 1 2 0.0 -27.508501 -3.810169 150.394884
14479 1 2 0.0 -23.765838 -6.979490 151.707507
14480 1 2 0.0 -25.866589 -2.954076 152.703647
14481 1 2 0.0 -28.483254 -2.286892 153.330880
14482 1 2 0.0 -24.371480 -7.019912 148.732315
14483 1 2 0.0 -27.430609 -5.184743 152.876609
14484 1 2 0.0 -26.154143 -7.728668 150.995694
14485 1 1 0.0 -19.468041 -7.047312 150.213394
14486 1 1 0.0 -22.344124 -6.583593 152.323056
14487 1 1 0.0 -19.802060 -1.909567 153.633395
14488 1 1 0.0 -22.227053 -3.411951 152.267251
14489 1 2 0.0 -18.809271 -8.477410 149.699086
14490 1 2 0.0 -22.392589 -3.493934 150.359372
14491 1 2 0.0 -18.689436 -6.381192 151.565427
14492 1 2 0.0 -20.744009 -2.881503 152.637226
14493 1 2 0.0 -23.360649 -2.357141 153.294891
14494 1 2 0.0 -19.316851 -6.202587 148.642331
14495 1 2 0.0 -22.321422 -4.943728 152.809384
14496 1 2 0.0 -21.085013 -7.077875 150.905170
14497 1 1 0.0 -34.133627 -12.867457 153.829079
14498 1 1 0.0 -37.283192 -11.375671 155.734120
14499 1 1 0.0 -35.273605 -5.271378 157.242807
14500 1 1 0.0 -37.471087 -7.452524 155.736153
14501 1 2 0.0 -33.213806 -14.880281 153.349121
14502 1 2 0.0 -37.491982 -8.100877 153.821416
14503 1 2 0.0 -33.559127 -11.730647 155.261173
14504 1 2 0.0 -36.066045 -6.769715 156.195816
14505 1 2 0.0 -38.744030 -5.753100 156.703358
14506 1 2 0.0 -33.922475 -12.260303 152.251406
14507 1 2 0.0 -37.460575 -9.204899 156.253153
14508 1 2 0.0 -35.839344 -12.527324 154.403418
14509 1 1 0.0 -29.090428 -12.375114 153.956145
14510 1 1 0.0 -32.218745 -11.261634 155.956764
14511 1 1 0.0 -30.189294 -5.558056 157.329250
14512 1 1 0.0 -32.381536 -7.545321 155.897406
14513 1 2 0.0 -28.204801 -14.201560 153.477790
14514 1 2 0.0 -32.394157 -7.988598 153.971399
14515 1 2 0.0 -28.507156 -11.394679 155.356336
14516 1 2 0.0 -30.977011 -6.897032 156.312341
14517 1 2 0.0 -33.659629 -6.063430 156.887794
14518 1 2 0.0 -28.875103 -11.658655 152.355919
14519 1 2 0.0 -32.384629 -9.250763 156.447349
14520 1 2 0.0 -30.784410 -12.177266 154.585116
14521 1 1 0.0 -24.070195 -11.699584 153.914241
14522 1 1 0.0 -27.168062 -10.952834 156.000711
14523 1 1 0.0 -25.099602 -5.702351 157.285286
14524 1 1 0.0 -27.294476 -7.486173 155.919578
14525 1 2 0.0 -23.228360 -13.324210 153.422242
14526 1 2 0.0 -27.303656 -7.741249 153.997582
14527 1 2 0.0 -23.471574 -10.870688 155.278764
14528 1 2 0.0 -25.887977 -6.876884 156.293900
14529 1 2 0.0 -28.572044 -6.224883 156.935943
14530 1 2 0.0 -23.850147 -10.899206 152.314559
14531 1 2 0.0 -27.314507 -9.119017 156.478904
14532 1 2 0.0 -25.749918 -11.639245 154.593772
14533 1 1 0.0 -19.073304 -10.837864 153.700598
14534 1 1 0.0 -22.130920 -10.452434 155.868864
14535 1 1 0.0 -20.004408 -5.701083 157.108005
14536 1 1 0.0 -22.209880 -7.276679 155.804131
14537 1 2 0.0 -18.285132 -12.244268 153.178801
14538 1 2 0.0 -22.220375 -7.360718 153.901694
14539 1 2 0.0 -18.452870 -10.153059 155.023297
14540 1 2 0.0 -20.798943 -6.707940 156.139278
14541 1 2 0.0 -23.481348 -6.240944 156.850996
14542 1 2 0.0 -18.848027 -9.978997 152.124590
14543 1 2 0.0 -22.250134 -8.811935 156.349902
14544 1 2 0.0 -20.735801 -10.913880 154.429955
14545 1 1 0.0 -33.560623 -16.699981 157.374693
14546 1 1 0.0 -36.882040 -15.166737 159.221049
14547 1 1 0.0 -35.351284 -9.154326 160.796729
14548 1 1 0.0 -37.305624 -11.273288 159.235025
14549 1 2 0.0 -32.492717 -18.693426 156.899805
14550 1 2 0.0 -37.188958 -11.905258 157.313190
14551 1 2 0.0 -33.142651 -15.602629 158.824622
14552 1 2 0.0 -35.983099 -10.631390 159.730119
14553 1 2 0.0 -38.712707 -9.547164 160.174374
14554 1 2 0.0 -33.298923 -16.088394 155.800411
14555 1 2 0.0 -37.216284 -13.016783 159.747339
14556 1 2 0.0 -35.309680 -16.330655 157.916330
14557 1 1 0.0 -28.582385 -16.279394 157.559527
14558 1 1 0.0 -31.885811 -15.164085 159.540981
14559 1 1 0.0 -30.328429 -9.494293 160.934032
14560 1 1 0.0 -32.276316 -11.465596 159.486438
14561 1 2 0.0 -27.552263 -18.085305 157.082086
14562 1 2 0.0 -32.141782 -11.899061 157.557610
14563 1 2 0.0 -28.161284 -15.319140 158.962023
14564 1 2 0.0 -30.954946 -10.831334 159.913113
14565 1 2 0.0 -33.691159 -9.972319 160.465107
14566 1 2 0.0 -28.307422 -15.555389 155.959932
14567 1 2 0.0 -32.207212 -13.166506 160.034533
14568 1 2 0.0 -30.319092 -16.076942 158.179322
14569 1 1 0.0 -23.637555 -15.592339 157.498573
14570 1 1 0.0 -26.909360 -14.881565 159.604131
14571 1 1 0.0 -25.297026 -9.608102 160.864202
14572 1 1 0.0 -27.250892 -11.421005 159.521007
14573 1 2 0.0 -22.657941 -17.195791 157.003393
14574 1 2 0.0 -27.106540 -11.672749 157.600280
14575 1 2 0.0 -23.203581 -14.764175 158.850020
14576 1 2 0.0 -25.926792 -10.799692 159.884153
14577 1 2 0.0 -28.664590 -10.162794 160.541006
14578 1 2 0.0 -23.350135 -14.781528 155.896803
14579 1 2 0.0 -27.206753 -13.053564 160.081200
14580 1 2 0.0 -25.358093 -15.551170 158.191850
14581 1 1 0.0 -18.726678 -14.634448 157.187802
14582 1 1 0.0 -21.952367 -14.323723 159.414671
14583 1 1 0.0 -20.256885 -9.490704 160.582615
14584 1 1 0.0 -22.229309 -11.142006 159.341010
14585 1 2 0.0 -17.810672 -16.019270 156.658517
14586 1 2 0.0 -22.083067 -11.229394 157.444015
14587 1 2 0.0 -18.270246 -13.929628 158.481167
14588 1 2 0.0 -20.898639 -10.534376 159.641330
14589 1 2 0.0 -23.633119 -10.124083 160.407100
14590 1 2 0.0 -18.427703 -13.762296 155.606850
14591 1 2 0.0 -22.214796 -12.681321 159.890420
14592 1 2 0.0 -20.426585 -14.754235 157.954740
14593 1 1 0.0 -32.951658 -20.527995 160.920308
14594 1 1 0.0 -36.430044 -18.954209 162.707978
14595 1 1 0.0 -35.396124 -13.038516 164.350652
14596 1 1 0.0 -37.092979 -15.093278 162.733896
14597 1 2 0.0 -31.737012 -22.500897 160.450488
14598 1 2 0.0 -36.837724 -15.707025 160.804964
14599 1 2 0.0 -32.695764 -19.471961 162.388071
14600 1 2 0.0 -35.861534 -14.493065 163.264423
14601 1 2 0.0 -38.628647 -13.342355 163.645389
14602 1 2 0.0 -32.641027 -19.911606 159.349416
14603 1 2 0.0 -36.923122 -16.827064 163.241525
14604 1 2 0.0 -34.735270 -20.129120 161.429242
14605 1 1 0.0 -28.067128 -20.182770 161.162909
14606 1 1 0.0 -31.531070 -19.064995 163.125198
14607 1 1 0.0 -30.462983 -13.430702 164.538815
14608 1 1 0.0 -32.152302 -15.385564 163.075470
14609 1 2 0.0 -26.894015 -21.968114 160.686382
14610 1 2 0.0 -31.869299 -15.808434 161.143822
14611 1 2 0.0 -27.813946 -19.243473 162.567710
14612 1 2 0.0 -30.922606 -14.765635 163.513886
14613 1 2 0.0 -33.698267 -13.881730 164.042420
14614 1 2 0.0 -27.733651 -19.451258 159.563945
14615 1 2 0.0 -32.009713 -17.081591 163.621717
14616 1 2 0.0 -29.837885 -19.974890 161.773527
14617 1 1 0.0 -23.226446 -19.487793 161.082904
14618 1 1 0.0 -26.657889 -18.810806 163.207551
14619 1 1 0.0 -25.518127 -13.512958 164.443119
14620 1 1 0.0 -27.216900 -15.355995 163.122435
14621 1 2 0.0 -22.110718 -21.071174 160.584543
14622 1 2 0.0 -26.917420 -15.604681 161.202977
14623 1 2 0.0 -22.963065 -18.660057 162.421277
14624 1 2 0.0 -25.983679 -14.722499 163.474407
14625 1 2 0.0 -28.761032 -14.100621 164.146069
14626 1 2 0.0 -22.872288 -18.667000 159.479048
14627 1 2 0.0 -27.107706 -16.988397 163.683495
14628 1 2 0.0 -24.979235 -19.464505 161.789927
14629 1 1 0.0 -18.430330 -18.437335 160.675006
14630 1 1 0.0 -21.810083 -18.197575 162.960479
14631 1 1 0.0 -20.561296 -13.278363 164.057226
14632 1 1 0.0 -22.286717 -15.007957 162.877890
14633 1 2 0.0 -17.388312 -19.802814 160.138232
14634 1 2 0.0 -21.981854 -15.100027 160.986336
14635 1 2 0.0 -18.144044 -17.711115 161.939037
14636 1 2 0.0 -21.044752 -14.360812 163.143381
14637 1 2 0.0 -23.817101 -14.006532 163.963205
14638 1 2 0.0 -18.057799 -17.552758 159.089109
14639 1 2 0.0 -22.216953 -16.551937 163.430938
14640 1 2 0.0 -20.159191 -18.599139 161.479524
14641 1 1 0.0 -32.304410 -24.351211 164.465922
14642 1 1 0.0 -35.923827 -22.737850 166.194908
14643 1 1 0.0 -35.406337 -16.924014 167.904574
14644 1 1 0.0 -36.830499 -18.912451 166.232768
14645 1 2 0.0 -30.944310 -26.302302 164.001171
14646 1 2 0.0 -36.435760 -19.506041 164.296738
14647 1 2 0.0 -32.216470 -23.338467 165.951521
14648 1 2 0.0 -35.699205 -18.354740 166.798726
14649 1 2 0.0 -38.488939 -17.138737 167.116405
14650 1 2 0.0 -31.946779 -23.729654 162.898421
14651 1 2 0.0 -36.578048 -20.635644 166.735711
14652 1 2 0.0 -34.113194 -23.922401 164.942154
14653 1 1 0.0 -27.544189 -24.085182 164.766291
14654 1 1 0.0 -31.153074 -22.964261 166.709414
14655 1 1 0.0 -30.592707 -17.367295 168.143597
14656 1 1 0.0 -32.008435 -19.305206 166.664502
14657 1 2 0.0 -26.229663 -25.849922 164.290678
14658 1 2 0.0 -31.575657 -19.716660 164.730033
14659 1 2 0.0 -27.465046 -23.167670 166.173396
14660 1 2 0.0 -30.879423 -18.699937 167.114658
14661 1 2 0.0 -33.679607 -17.791693 167.619733
14662 1 2 0.0 -27.153435 -23.346211 163.167958
14663 1 2 0.0 -31.790882 -20.995976 167.208901
14664 1 2 0.0 -29.339752 -23.870998 165.367732
14665 1 1 0.0 -22.838257 -23.386121 164.667235
14666 1 1 0.0 -26.414129 -22.740593 166.810970
14667 1 1 0.0 -25.764196 -17.416870 168.022035
14668 1 1 0.0 -27.193039 -19.291151 166.723864
14669 1 2 0.0 -21.588284 -24.950622 164.165694
14670 1 2 0.0 -26.736711 -19.537070 164.805675
14671 1 2 0.0 -22.751833 -22.558492 165.992534
14672 1 2 0.0 -26.059641 -18.645307 167.064660
14673 1 2 0.0 -28.861583 -18.038361 167.751132
14674 1 2 0.0 -22.417901 -22.555803 163.061292
14675 1 2 0.0 -27.017907 -20.923534 167.285791
14676 1 2 0.0 -24.614190 -23.379343 165.388005
14677 1 1 0.0 -18.187505 -22.246933 164.162210
14678 1 1 0.0 -21.706475 -22.074161 166.506286
14679 1 1 0.0 -20.920473 -17.063951 167.531836
14680 1 1 0.0 -22.384240 -18.874564 166.414769
14681 1 2 0.0 -17.021635 -23.595486 163.617948
14682 1 2 0.0 -21.918627 -18.972720 164.528658
14683 1 2 0.0 -18.077971 -21.497842 165.396907
14684 1 2 0.0 -21.239859 -18.187249 166.645433
14685 1 2 0.0 -24.035072 -17.888255 167.519310
14686 1 2 0.0 -17.741261 -21.350800 162.571368
14687 1 2 0.0 -22.258940 -20.423858 166.971457
14688 1 2 0.0 -19.936350 -22.448888 165.004309
14689 1 1 0.0 -31.615547 -28.169209 168.011536
14690 1 1 0.0 -35.358550 -26.517316 169.681837
14691 1 1 0.0 -35.379314 -20.810920 171.458497
14692 1 1 0.0 -36.514330 -22.730745 169.731640
14693 1 2 0.0 -30.111207 -30.097084 167.551854
14694 1 2 0.0 -35.979367 -23.302107 167.788512
14695 1 2 0.0 -31.701906 -27.201900 169.514970
14696 1 2 0.0 -35.492993 -22.216415 170.333029
14697 1 2 0.0 -38.289348 -20.936400 170.587421
14698 1 2 0.0 -31.213275 -27.542126 166.447426
14699 1 2 0.0 -36.176683 -24.442377 170.229897
14700 1 2 0.0 -33.439260 -27.710042 168.455067
14701 1 1 0.0 -27.012901 -27.986547 168.369673
14702 1 1 0.0 -30.749747 -26.861737 170.293631
14703 1 1 0.0 -30.717237 -21.304083 171.748380
14704 1 1 0.0 -31.843182 -23.224497 170.253534
14705 1 2 0.0 -25.558645 -29.730637 167.894974
14706 1 2 0.0 -31.259314 -23.623655 168.316245
14707 1 2 0.0 -27.114446 -27.091719 169.779083
14708 1 2 0.0 -30.824566 -22.634238 170.715431
14709 1 2 0.0 -33.633216 -21.702248 171.197046
14710 1 2 0.0 -26.566258 -27.240176 166.771971
14711 1 2 0.0 -31.548920 -24.909603 170.796085
14712 1 2 0.0 -28.823203 -27.765102 168.961938
14713 1 1 0.0 -22.474985 -27.287573 168.251566
14714 1 1 0.0 -26.178767 -26.670974 170.414390
14715 1 1 0.0 -26.037113 -21.319768 171.600951
14716 1 1 0.0 -27.180093 -23.226485 170.325292
14717 1 2 0.0 -21.092921 -28.834507 167.746844
14718 1 2 0.0 -26.565029 -23.469948 168.408373
14719 1 2 0.0 -22.572470 -26.459704 169.563791
14720 1 2 0.0 -26.156139 -22.568115 170.654913
14721 1 2 0.0 -28.966558 -21.976005 171.356195
14722 1 2 0.0 -21.988850 -26.448206 166.643536
14723 1 2 0.0 -26.938136 -24.858999 170.888086
14724 1 2 0.0 -24.264171 -27.295815 168.986083
14725 1 1 0.0 -18.002860 -26.063824 167.649414
14726 1 1 0.0 -21.644995 -25.953724 170.052093
14727 1 1 0.0 -21.338541 -20.847314 171.006446
14728 1 1 0.0 -22.524980 -22.741880 169.951649
14729 1 2 0.0 -16.715766 -27.398128 167.097663
14730 1 2 0.0 -21.896151 -22.847622 168.070979
14731 1 2 0.0 -18.077337 -25.290274 168.854776
14732 1 2 0.0 -21.487712 -22.013685 170.147485
14733 1 2 0.0 -24.289619 -21.769195 171.075415
14734 1 2 0.0 -17.482355 -25.157029 166.053627
14735 1 2 0.0 -22.344114 -24.297196 170.511975
14736 1 2 0.0 -19.761978 -26.303909 168.529094
14737 1 1 0.0 -30.880326 -31.981395 171.557151
14738 1 1 0.0 -34.727322 -30.292122 173.168766
14739 1 1 0.0 -35.311336 -24.699374 175.012419
14740 1 1 0.0 -36.138982 -26.548068 173.230512
14741 1 2 0.0 -29.232849 -33.884447 171.102537
14742 1 2 0.0 -35.463273 -27.094935 171.280285
14743 1 2 0.0 -31.147994 -31.061903 173.078419
14744 1 2 0.0 -35.238453 -26.078090 173.867332
14745 1 2 0.0 -38.023837 -24.735473 174.058436
14746 1 2 0.0 -30.436379 -31.348434 169.996431
14747 1 2 0.0 -35.712795 -28.247061 173.724083
14748 1 2 0.0 -32.707503 -31.491394 171.967979
14749 1 1 0.0 -26.472311 -31.886747 171.973054
14750 1 1 0.0 -30.318135 -30.757214 173.877848
14751 1 1 0.0 -30.836054 -25.241087 175.353162
14752 1 1 0.0 -31.654354 -27.143402 173.842566
14753 1 2 0.0 -24.880162 -33.610128 171.499270
14754 1 2 0.0 -30.918070 -27.529301 171.902456
14755 1 2 0.0 -26.761948 -31.015602 173.384770
14756 1 2 0.0 -30.756852 -26.568540 174.316203
14757 1 2 0.0 -33.556300 -25.613457 174.774360
14758 1 2 0.0 -25.971388 -31.133047 170.375984
14759 1 2 0.0 -31.281266 -28.822388 174.383269
14760 1 2 0.0 -28.286120 -31.656974 172.556143
14761 1 1 0.0 -22.139469 -31.192504 171.835898
14762 1 1 0.0 -25.952784 -30.602017 174.017810
14763 1 1 0.0 -26.339560 -25.221550 175.179867
14764 1 1 0.0 -27.179179 -27.162017 173.926721
14765 1 2 0.0 -20.627881 -32.723364 171.327995
14766 1 2 0.0 -26.403246 -27.403363 172.011071
14767 1 2 0.0 -22.428661 -30.364015 173.135047
14768 1 2 0.0 -26.275251 -26.490923 174.245167
14769 1 2 0.0 -29.076401 -25.913546 174.961258
14770 1 2 0.0 -21.587802 -30.344586 170.225780
14771 1 2 0.0 -26.869505 -28.794829 174.490382
14772 1 2 0.0 -23.930910 -31.214110 172.584161
14773 1 1 0.0 -17.883029 -29.888842 171.136618
14774 1 1 0.0 -21.630558 -29.836612 173.597901
14775 1 1 0.0 -21.821379 -24.628229 174.481056
14776 1 1 0.0 -22.713357 -26.609977 173.488528
14777 1 2 0.0 -16.478008 -31.211935 170.577379
14778 1 2 0.0 -21.918376 -26.724948 171.613300
14779 1 2 0.0 -18.149708 -29.089068 172.312646
14780 1 2 0.0 -21.793651 -25.840122 173.649537
14781 1 2 0.0 -24.584429 -25.649273 174.631519
14782 1 2 0.0 -17.287149 -28.972307 169.535887
14783 1 2 0.0 -22.477258 -28.172106 174.052493
14784 1 2 0.0 -19.641653 -30.164807 172.053879
14785 1 1 0.0 -32.751903 25.585968 132.360716
14786 1 1 0.0 -33.753471 26.961612 134.735237
14787 1 1 0.0 -27.177417 32.347099 135.707978
14788 1 1 0.0 -31.298572 30.583985 134.641731
14789 1 2 0.0 -33.526485 23.575383 131.840207
14790 1 2 0.0 -32.493285 30.115993 132.783776
14791 1 2 0.0 -30.858056 26.590940 133.650131
14792 1 2 0.0 -29.360761 31.163979 134.817944
14793 1 2 0.0 -30.993113 31.969795 135.831784
14794 1 2 0.0 -32.848884 26.208588 130.755916
14795 1 2 0.0 -32.260357 28.957414 135.196216
14796 1 2 0.0 -33.762926 25.929865 133.196673
14797 1 1 0.0 -28.077558 25.522645 132.025643
14798 1 1 0.0 -29.039496 26.881583 134.179583
14799 1 1 0.0 -22.665625 31.535460 135.387540
14800 1 1 0.0 -26.681108 30.271047 134.081703
14801 1 2 0.0 -28.821817 23.648828 131.539974
14802 1 2 0.0 -27.896591 30.032839 132.178259
14803 1 2 0.0 -26.193525 26.249912 133.407394
14804 1 2 0.0 -24.789489 30.622320 134.402712
14805 1 2 0.0 -26.373134 31.597496 135.165841
14806 1 2 0.0 -28.226532 26.226366 130.420366
14807 1 2 0.0 -27.587530 28.699349 134.646428
14808 1 2 0.0 -29.068490 25.934391 132.728025
14809 1 1 0.0 -23.447912 24.974534 132.136143
14810 1 1 0.0 -24.396464 26.319459 134.069905
14811 1 1 0.0 -18.286777 30.212643 135.550509
14812 1 1 0.0 -22.168636 29.440891 134.004701
14813 1 2 0.0 -24.142577 23.253298 131.669589
14814 1 2 0.0 -23.388248 29.410773 132.072552
14815 1 2 0.0 -21.591268 25.431512 133.605262
14816 1 2 0.0 -20.331184 29.567453 134.468426
14817 1 2 0.0 -21.879943 30.702685 134.991991
14818 1 2 0.0 -23.642805 25.733882 130.553156
14819 1 2 0.0 -23.006695 27.946665 134.557092
14820 1 2 0.0 -24.426780 25.454111 132.705701
14821 1 1 0.0 -18.863696 23.933690 132.699518
14822 1 1 0.0 -19.823223 25.283075 134.398957
14823 1 1 0.0 -14.043842 28.367236 136.207676
14824 1 1 0.0 -17.760052 28.098955 134.405646
14825 1 2 0.0 -19.489270 22.379437 132.237628
14826 1 2 0.0 -18.967020 28.257323 132.459675
14827 1 2 0.0 -17.053145 24.121487 134.256891
14828 1 2 0.0 -15.986861 27.994756 135.019416
14829 1 2 0.0 -17.510571 29.297599 135.298709
14830 1 2 0.0 -19.098429 24.721570 131.163068
14831 1 2 0.0 -18.516674 26.705697 134.922309
14832 1 2 0.0 -19.837621 24.490623 133.128229
14833 1 1 0.0 -33.298121 21.745864 135.906330
14834 1 1 0.0 -34.567929 23.230520 138.222167
14835 1 1 0.0 -28.346324 28.638815 139.261900
14836 1 1 0.0 -32.331349 26.892700 138.140602
14837 1 2 0.0 -33.911399 19.710982 135.390891
14838 1 2 0.0 -33.405560 26.399416 136.275549
14839 1 2 0.0 -31.519176 22.750674 137.213580
14840 1 2 0.0 -30.414967 27.441907 138.352247
14841 1 2 0.0 -32.193349 28.358454 139.302800
14842 1 2 0.0 -33.339430 22.356889 134.304921
14843 1 2 0.0 -33.220038 25.252589 138.690402
14844 1 2 0.0 -34.411857 22.139505 136.709585
14845 1 1 0.0 -28.477267 21.605647 135.629025
14846 1 1 0.0 -29.721069 23.023493 137.763799
14847 1 1 0.0 -23.683713 27.730531 138.992323
14848 1 1 0.0 -27.569684 26.449970 137.670735
14849 1 2 0.0 -29.063875 19.718017 135.144270
14850 1 2 0.0 -28.653576 26.186240 135.764471
14851 1 2 0.0 -26.710735 22.344331 137.013081
14852 1 2 0.0 -25.694854 26.793120 138.003485
14853 1 2 0.0 -27.436496 27.833428 138.743154
14854 1 2 0.0 -28.558848 22.302413 134.024379
14855 1 2 0.0 -28.411695 24.865966 138.233612
14856 1 2 0.0 -29.576160 22.039321 136.322231
14857 1 1 0.0 -23.693405 21.064220 135.720475
14858 1 1 0.0 -24.932732 22.418778 137.673325
14859 1 1 0.0 -19.132946 26.392205 139.129425
14860 1 1 0.0 -22.896108 25.573289 137.606130
14861 1 2 0.0 -24.237237 19.339821 135.250740
14862 1 2 0.0 -23.976162 25.518204 135.675250
14863 1 2 0.0 -21.953733 21.543683 137.176519
14864 1 2 0.0 -21.069622 25.713279 138.058679
14865 1 2 0.0 -22.786193 26.869294 138.597054
14866 1 2 0.0 -23.810559 21.821326 134.135401
14867 1 2 0.0 -23.679782 24.068389 138.159387
14868 1 2 0.0 -24.784043 21.538427 136.303779
14869 1 1 0.0 -18.947141 20.115009 136.186722
14870 1 1 0.0 -20.201965 21.422840 137.944764
14871 1 1 0.0 -14.696520 24.614235 139.682286
14872 1 1 0.0 -18.309696 24.267222 137.942526
14873 1 2 0.0 -19.431902 18.568711 135.717344
14874 1 2 0.0 -19.372277 24.401657 136.001996
14875 1 2 0.0 -17.249704 20.336954 137.714760
14876 1 2 0.0 -16.540127 24.198501 138.521468
14877 1 2 0.0 -18.239946 25.476334 138.854814
14878 1 2 0.0 -19.095169 20.905627 134.645327
14879 1 2 0.0 -19.023323 22.865123 138.462827
14880 1 2 0.0 -20.035362 20.638144 136.653013
14881 1 1 0.0 -33.804055 17.902046 139.451944
14882 1 1 0.0 -35.326784 19.491247 141.709096
14883 1 1 0.0 -29.477158 24.920628 142.815823
14884 1 1 0.0 -33.309455 23.190318 141.639474
14885 1 2 0.0 -34.258282 15.844519 138.941574
14886 1 2 0.0 -34.259891 22.673339 139.767323
14887 1 2 0.0 -32.146756 18.906032 140.777030
14888 1 2 0.0 -31.424363 23.709971 141.886550
14889 1 2 0.0 -33.332525 24.732296 142.773816
14890 1 2 0.0 -33.789720 18.502141 137.853926
14891 1 2 0.0 -34.125222 21.537628 142.184588
14892 1 2 0.0 -35.011086 18.343739 140.222498
14893 1 1 0.0 -28.868893 17.687903 139.232407
14894 1 1 0.0 -30.378795 19.161893 141.348016
14895 1 1 0.0 -24.696491 23.924222 142.597106
14896 1 1 0.0 -28.436482 22.624472 141.259767
14897 1 2 0.0 -29.299658 15.786865 138.748566
14898 1 2 0.0 -29.386392 22.335680 139.350682
14899 1 2 0.0 -27.226329 18.438540 140.618768
14900 1 2 0.0 -26.588297 22.961297 141.604258
14901 1 2 0.0 -28.471583 24.062499 142.320467
14902 1 2 0.0 -28.884026 18.377920 137.628392
14903 1 2 0.0 -29.213465 21.028417 141.820796
14904 1 2 0.0 -30.066181 18.142331 139.916436
14905 1 1 0.0 -23.963017 17.156130 139.304806
14906 1 1 0.0 -25.476906 18.519262 141.276744
14907 1 1 0.0 -20.006567 22.578907 142.708341
14908 1 1 0.0 -23.634695 21.707944 141.207558
14909 1 2 0.0 -24.357380 15.427727 138.831890
14910 1 2 0.0 -24.573684 21.627209 139.277948
14911 1 2 0.0 -22.346502 17.659807 140.747775
14912 1 2 0.0 -21.829030 21.863721 141.648932
14913 1 2 0.0 -23.696953 23.036997 142.202117
14914 1 2 0.0 -24.004293 17.910736 137.717645
14915 1 2 0.0 -24.362579 20.191919 141.761683
14916 1 2 0.0 -25.155709 17.624309 139.901857
14917 1 1 0.0 -19.086908 16.301521 139.673926
14918 1 1 0.0 -20.620369 17.568442 141.490571
14919 1 1 0.0 -15.409411 20.876893 143.156896
14920 1 1 0.0 -18.903346 20.444422 141.479405
14921 1 2 0.0 -19.431774 14.761088 139.197059
14922 1 2 0.0 -19.820919 20.553105 139.544317
14923 1 2 0.0 -17.508491 16.560539 141.172630
14924 1 2 0.0 -17.147253 20.414102 142.023520
14925 1 2 0.0 -19.006615 21.664118 142.410919
14926 1 2 0.0 -19.151009 17.094158 138.127587
14927 1 2 0.0 -19.571784 19.032326 142.003345
14928 1 2 0.0 -20.279558 16.790717 140.177798
14929 1 1 0.0 -34.272604 14.054781 142.997559
14930 1 1 0.0 -36.033945 15.744366 145.196025
14931 1 1 0.0 -30.573048 21.193354 146.369746
14932 1 1 0.0 -34.237281 19.477729 145.138346
14933 1 2 0.0 -34.569725 11.976134 142.492257
14934 1 2 0.0 -35.061176 18.938565 143.259097
14935 1 2 0.0 -32.743179 15.057326 144.340479
14936 1 2 0.0 -32.392579 19.968972 145.420853
14937 1 2 0.0 -34.415613 21.092529 146.244831
14938 1 2 0.0 -34.202894 14.644584 141.402932
14939 1 2 0.0 -34.979954 17.813284 145.678774
14940 1 2 0.0 -35.564157 14.542954 143.735410
14941 1 1 0.0 -29.253018 13.769468 142.835788
14942 1 1 0.0 -31.014348 15.297031 144.932233
14943 1 1 0.0 -25.704395 20.116644 146.201888
14944 1 1 0.0 -29.283251 18.794908 144.848799
14945 1 2 0.0 -29.529595 11.855396 142.352862
14946 1 2 0.0 -30.097083 18.481492 142.936893
14947 1 2 0.0 -27.740420 14.532553 144.224455
14948 1 2 0.0 -27.470786 19.127062 145.205030
14949 1 2 0.0 -29.480697 20.285268 145.897780
14950 1 2 0.0 -29.202623 14.452929 141.232405
14951 1 2 0.0 -29.994504 17.187013 145.407980
14952 1 2 0.0 -30.539810 14.243559 143.510641
14953 1 1 0.0 -24.255013 13.250103 142.889137
14954 1 1 0.0 -26.028432 14.620827 144.880164
14955 1 1 0.0 -20.905384 18.772161 146.287257
14956 1 1 0.0 -24.383504 17.844673 144.808987
14957 1 2 0.0 -24.501270 11.516919 142.413041
14958 1 2 0.0 -25.180003 17.737657 142.880645
14959 1 2 0.0 -22.767427 13.779604 144.319032
14960 1 2 0.0 -22.607707 18.018405 145.239185
14961 1 2 0.0 -24.611855 19.205705 145.807180
14962 1 2 0.0 -24.221982 14.001959 141.299889
14963 1 2 0.0 -25.054364 16.317121 145.363978
14964 1 2 0.0 -25.540751 13.711646 143.499934
14965 1 1 0.0 -19.278941 12.492851 143.161130
14966 1 1 0.0 -21.075648 13.719471 145.036379
14967 1 1 0.0 -16.177569 17.153925 146.631506
14968 1 1 0.0 -19.537470 16.629837 145.016285
14969 1 2 0.0 -19.484987 10.956358 142.676775
14970 1 2 0.0 -20.309279 16.711063 143.086639
14971 1 2 0.0 -17.825088 12.791665 144.630500
14972 1 2 0.0 -17.803874 16.640597 145.525571
14973 1 2 0.0 -19.807541 17.860216 145.967024
14974 1 2 0.0 -19.261339 13.286813 141.609846
14975 1 2 0.0 -20.158954 15.206727 145.543863
14976 1 2 0.0 -20.566897 12.947982 143.702583
14977 1 1 0.0 -34.705767 10.204253 146.543173
14978 1 1 0.0 -36.692092 11.990272 148.682954
14979 1 1 0.0 -31.636176 17.457558 149.923668
14980 1 1 0.0 -35.117888 15.755554 148.637218
14981 1 2 0.0 -34.847498 8.105924 146.042940
14982 1 2 0.0 -35.812839 15.195657 146.750871
14983 1 2 0.0 -33.310078 11.204768 147.903928
14984 1 2 0.0 -33.322149 16.219465 148.955156
14985 1 2 0.0 -35.446082 17.439993 149.715847
14986 1 2 0.0 -34.581134 10.784383 144.951937
14987 1 2 0.0 -35.787029 14.080077 149.172960
14988 1 2 0.0 -36.073509 10.737413 147.248322
14989 1 1 0.0 -29.630044 9.850378 146.439170
14990 1 1 0.0 -31.628881 11.429076 148.516449
14991 1 1 0.0 -26.707729 16.307879 149.806671
14992 1 1 0.0 -30.111210 14.961526 148.437830
14993 1 2 0.0 -29.753977 7.923627 145.957158
14994 1 2 0.0 -30.787078 14.623912 146.523105
14995 1 2 0.0 -28.253088 10.626380 147.830141
14996 1 2 0.0 -28.342993 15.290564 148.805803
14997 1 2 0.0 -30.465445 16.502124 149.475094
14998 1 2 0.0 -29.515026 10.527469 144.836419
14999 1 2 0.0 -30.755960 13.341966 148.995164
15000 1 2 0.0 -30.997915 10.343098 147.104847
15001 1 1 0.0 -24.568195 9.346031 146.473468
15002 1 1 0.0 -26.586928 10.723417 148.483584
15003 1 1 0.0 -21.827822 14.971559 149.866173
15004 1 1 0.0 -25.141913 13.983352 148.410416
15005 1 2 0.0 -24.667721 7.607335 145.994192
15006 1 2 0.0 -25.794551 13.849453 146.483343
15007 1 2 0.0 -23.215027 9.902881 147.890289
15008 1 2 0.0 -23.404469 14.177069 148.829439
15009 1 2 0.0 -25.530644 15.375356 149.412243
15010 1 2 0.0 -24.462216 10.094889 144.882134
15011 1 2 0.0 -25.754639 12.443901 148.966274
15012 1 2 0.0 -25.938462 9.800361 147.098012
15013 1 1 0.0 -19.520447 8.688744 146.648334
15014 1 1 0.0 -21.565887 9.875644 148.582186
15015 1 1 0.0 -16.997540 13.444433 150.106117
15016 1 1 0.0 -20.209603 12.822969 148.553164
15017 1 2 0.0 -19.588875 7.154375 146.156491
15018 1 2 0.0 -20.834792 12.875113 146.628960
15019 1 2 0.0 -18.196462 9.029937 148.088370
15020 1 2 0.0 -18.506944 12.877316 149.027623
15021 1 2 0.0 -20.640607 14.064112 149.523128
15022 1 2 0.0 -19.422953 9.483351 145.092105
15023 1 2 0.0 -20.782687 11.387929 149.084381
15024 1 2 0.0 -20.895098 9.109692 147.227368
15025 1 1 0.0 -35.104834 6.350581 150.088788
15026 1 1 0.0 -37.302942 8.229218 152.169884
15027 1 1 0.0 -32.668011 13.713625 153.477591
15028 1 1 0.0 -35.953317 12.024209 152.136089
15029 1 2 0.0 -35.092717 4.233949 149.593623
15030 1 2 0.0 -36.517197 11.444994 150.242645
15031 1 2 0.0 -33.848505 7.348497 151.467377
15032 1 2 0.0 -34.214769 12.461825 152.489459
15033 1 2 0.0 -36.426257 13.775254 153.186863
15034 1 2 0.0 -34.925888 6.921647 148.500942
15035 1 2 0.0 -36.548273 10.338346 152.667146
15036 1 2 0.0 -36.540709 6.927289 150.761234
15037 1 1 0.0 -30.000229 5.930658 150.042552
15038 1 1 0.0 -32.223127 7.558135 152.100666
15039 1 1 0.0 -27.706698 12.497978 153.411453
15040 1 1 0.0 -30.921173 11.124490 152.026862
15041 1 2 0.0 -29.972989 3.991566 149.561454
15042 1 2 0.0 -31.457343 10.763096 150.109316
15043 1 2 0.0 -28.764383 6.720028 151.435828
15044 1 2 0.0 -29.205371 11.451903 152.406575
15045 1 2 0.0 -31.426903 12.713329 153.052407
15046 1 2 0.0 -29.821492 6.601559 148.440432
15047 1 2 0.0 -31.498582 9.493417 152.582348
15048 1 2 0.0 -31.441051 6.441009 150.699052
15049 1 1 0.0 -24.901791 5.443840 150.057799
15050 1 1 0.0 -27.152149 6.826998 152.087004
15051 1 1 0.0 -22.772825 11.176825 153.445090
15052 1 1 0.0 -25.909506 10.123894 152.011844
15053 1 2 0.0 -24.855985 3.698933 149.575342
15054 1 2 0.0 -26.416942 9.962536 150.086041
15055 1 2 0.0 -23.688355 6.029513 151.461545
15056 1 2 0.0 -24.218523 10.339539 152.419692
15057 1 2 0.0 -26.453148 11.545909 153.017306
15058 1 2 0.0 -24.724062 6.189456 148.464378
15059 1 2 0.0 -26.463080 8.572200 152.568569
15060 1 2 0.0 -26.348388 5.890404 150.696090
15061 1 1 0.0 -19.809623 4.889031 150.135538
15062 1 1 0.0 -22.089866 6.036782 152.127993
15063 1 1 0.0 -17.867003 9.747812 153.580727
15064 1 1 0.0 -20.918102 9.023482 152.090044
15065 1 2 0.0 -19.741760 3.355049 149.636206
15066 1 2 0.0 -21.395724 9.044969 150.171281
15067 1 2 0.0 -18.620663 5.275101 151.546240
15068 1 2 0.0 -19.254426 9.123812 152.529675
15069 1 2 0.0 -21.504392 10.275462 153.079233
15070 1 2 0.0 -19.633728 5.683610 148.574364
15071 1 2 0.0 -21.441585 7.575671 152.624900
15072 1 2 0.0 -21.262698 5.275686 150.752152
15073 1 1 0.0 -35.470499 2.493830 153.634402
15074 1 1 0.0 -37.867389 4.461336 155.656813
15075 1 1 0.0 -33.669439 9.961783 157.031513
15076 1 1 0.0 -36.744785 8.283940 155.634961
15077 1 2 0.0 -35.305942 0.360239 153.144307
15078 1 2 0.0 -37.175674 7.686808 153.734419
15079 1 2 0.0 -34.359015 3.488583 155.030826
15080 1 2 0.0 -35.071452 8.696275 156.023762
15081 1 2 0.0 -37.357532 10.098649 156.657878
15082 1 2 0.0 -35.237995 3.056440 152.049947
15083 1 2 0.0 -37.264698 6.588279 156.161332
15084 1 2 0.0 -36.966593 3.112670 154.274146
15085 1 1 0.0 -30.363712 2.010320 153.645934
15086 1 1 0.0 -32.797472 3.684266 155.684883
15087 1 1 0.0 -28.701426 8.686973 157.016236
15088 1 1 0.0 -31.713624 7.283900 155.615894
15089 1 2 0.0 -30.186722 0.059218 153.165750
15090 1 2 0.0 -32.108471 6.899144 153.695528
15091 1 2 0.0 -29.274333 2.813500 155.041515
15092 1 2 0.0 -30.058190 7.611137 156.007348
15093 1 2 0.0 -32.365717 8.919040 156.629720
15094 1 2 0.0 -30.122169 2.675212 152.044445
15095 1 2 0.0 -32.222788 5.641443 156.169532
15096 1 2 0.0 -31.869515 2.537325 154.293257
15097 1 1 0.0 -25.255387 1.543493 153.642131
15098 1 1 0.0 -27.723970 2.931549 155.690423
15099 1 1 0.0 -23.739752 7.387793 157.024006
15100 1 1 0.0 -26.686037 6.266251 155.613273
15101 1 2 0.0 -25.065686 -0.208306 153.156493
15102 1 2 0.0 -27.046942 6.076866 153.688738
15103 1 2 0.0 -24.186909 2.159437 155.032802
15104 1 2 0.0 -25.049392 6.505711 156.009945
15105 1 2 0.0 -27.379263 7.717338 156.622369
15106 1 2 0.0 -25.006977 2.285616 152.046622
15107 1 2 0.0 -27.179505 4.701984 156.170865
15108 1 2 0.0 -26.770287 1.981750 154.294168
15109 1 1 0.0 -20.145498 1.093625 153.622742
15110 1 1 0.0 -22.646943 2.202791 155.673801
15111 1 1 0.0 -18.784557 6.063698 157.055337
15112 1 1 0.0 -21.661987 5.231178 155.626923
15113 1 2 0.0 -19.942798 -0.441667 153.115922
15114 1 2 0.0 -21.991009 5.220457 153.713603
15115 1 2 0.0 -19.096661 1.527022 155.004109
15116 1 2 0.0 -20.045101 5.379814 156.031727
15117 1 2 0.0 -22.398044 6.494059 156.635338
15118 1 2 0.0 -19.892429 1.887497 152.056624
15119 1 2 0.0 -22.134868 3.769809 156.165418
15120 1 2 0.0 -21.668916 1.445880 154.276937
15121 1 1 0.0 -35.802918 -1.365987 157.180016
15122 1 1 0.0 -38.385589 0.686649 159.143742
15123 1 1 0.0 -34.640839 6.202131 160.585436
15124 1 1 0.0 -37.492780 4.534846 159.133833
15125 1 2 0.0 -35.487224 -3.515203 156.694990
15126 1 2 0.0 -37.788926 3.921209 157.226193
15127 1 2 0.0 -34.841715 -0.374959 158.594276
15128 1 2 0.0 -35.892620 4.922908 159.558065
15129 1 2 0.0 -38.240494 6.410320 160.128894
15130 1 2 0.0 -35.517764 -0.811216 155.598952
15131 1 2 0.0 -37.936595 2.829930 159.655518
15132 1 2 0.0 -37.351331 -0.706422 157.787058
15133 1 1 0.0 -30.720525 -1.910634 157.249315
15134 1 1 0.0 -33.351981 -0.192522 159.269099
15135 1 1 0.0 -29.691965 4.874880 160.621019
15136 1 1 0.0 -32.488757 3.439795 159.204926
15137 1 2 0.0 -30.395186 -3.873414 156.770046
15138 1 2 0.0 -32.740736 3.032099 157.281739
15139 1 2 0.0 -29.782942 -1.093202 158.647201
15140 1 2 0.0 -30.901560 3.768292 159.608120
15141 1 2 0.0 -33.282158 5.119322 160.207033
15142 1 2 0.0 -30.417112 -1.251570 155.648458
15143 1 2 0.0 -32.928695 1.786065 159.756716
15144 1 2 0.0 -32.283368 -1.367949 157.887463
15145 1 1 0.0 -25.628887 -2.355018 157.226462
15146 1 1 0.0 -28.302367 -0.962931 159.293843
15147 1 1 0.0 -24.728329 3.604392 160.602922
15148 1 1 0.0 -27.471405 2.410402 159.214701
15149 1 2 0.0 -25.296791 -4.114385 156.737643
15150 1 2 0.0 -27.684442 2.192425 157.291436
15151 1 2 0.0 -24.710590 -1.707361 158.604059
15152 1 2 0.0 -25.896882 2.675541 159.600199
15153 1 2 0.0 -28.308946 3.889632 160.227432
15154 1 2 0.0 -25.310762 -1.616643 155.628866
15155 1 2 0.0 -27.903863 0.833244 159.773160
15156 1 2 0.0 -27.204109 -1.925608 157.892246
15157 1 1 0.0 -20.527853 -2.697496 157.109946
15158 1 1 0.0 -23.237009 -1.626346 159.219608
15159 1 1 0.0 -19.749600 2.391935 160.529947
15160 1 1 0.0 -22.440865 1.445978 159.163803
15161 1 2 0.0 -20.191913 -4.235776 156.595637
15162 1 2 0.0 -22.620156 1.401497 157.255924
15163 1 2 0.0 -19.624255 -2.214327 158.461979
15164 1 2 0.0 -20.878464 1.645213 159.533778
15165 1 2 0.0 -23.321205 2.719816 160.191443
15166 1 2 0.0 -20.198607 -1.905022 155.538883
15167 1 2 0.0 -22.862315 -0.029700 159.705936
15168 1 2 0.0 -22.113591 -2.379743 157.801722
15169 1 1 0.0 -36.101725 -5.228902 160.725631
15170 1 1 0.0 -38.856964 -3.094930 162.630672
15171 1 1 0.0 -35.582119 2.434646 164.139358
15172 1 1 0.0 -38.197106 0.776887 162.632705
15173 1 2 0.0 -35.636106 -7.392402 160.245673
15174 1 2 0.0 -38.356889 0.148184 160.717967
15175 1 2 0.0 -35.296275 -4.242171 162.157725
15176 1 2 0.0 -36.678130 1.141691 163.092368
15177 1 2 0.0 -39.074963 2.710225 163.599910
15178 1 2 0.0 -35.764989 -4.681334 159.147957
15179 1 2 0.0 -38.563549 -0.936777 163.149704
15180 1 2 0.0 -37.694444 -4.530042 161.299970
15181 1 1 0.0 -31.070594 -5.832209 160.852697
15182 1 1 0.0 -33.886407 -4.072266 162.853316
15183 1 1 0.0 -30.678303 1.061694 164.225801
15184 1 1 0.0 -33.246495 -0.407842 162.793958
15185 1 2 0.0 -30.598304 -7.806337 160.374342
15186 1 2 0.0 -33.354112 -0.838043 160.867951
15187 1 2 0.0 -30.290194 -5.000082 162.252888
15188 1 2 0.0 -31.735444 -0.076642 163.208893
15189 1 2 0.0 -34.176144 1.314155 163.784346
15190 1 2 0.0 -30.706286 -5.178788 159.252471
15191 1 2 0.0 -33.616135 -2.072747 163.343900
15192 1 2 0.0 -32.682440 -5.274830 161.481668
15193 1 1 0.0 -26.022512 -6.251674 160.810793
15194 1 1 0.0 -28.887423 -4.856432 162.897263
15195 1 1 0.0 -25.738624 -0.173361 164.181838
15196 1 1 0.0 -28.265652 -1.443645 162.816130
15197 1 2 0.0 -25.549605 -8.019287 160.318794
15198 1 2 0.0 -28.329451 -1.690784 160.894134
15199 1 2 0.0 -25.259699 -5.570843 162.175315
15200 1 2 0.0 -26.761057 -1.150956 163.190452
15201 1 2 0.0 -29.242211 0.062796 163.832495
15202 1 2 0.0 -25.635551 -5.517312 159.211111
15203 1 2 0.0 -28.636228 -3.034007 163.375456
15204 1 2 0.0 -27.649993 -5.831654 161.490324
15205 1 1 0.0 -20.957201 -6.484284 160.597150
15206 1 1 0.0 -23.860476 -5.450568 162.765416
15207 1 1 0.0 -20.762280 -1.267438 164.004557
15208 1 1 0.0 -23.254896 -2.332086 162.700682
15209 1 2 0.0 -20.489792 -8.027241 160.075353
15210 1 2 0.0 -23.283212 -2.411905 160.798245
15211 1 2 0.0 -20.204060 -5.948865 161.919849
15212 1 2 0.0 -21.754684 -2.079954 163.035830
15213 1 2 0.0 -24.273985 -1.047239 163.747547
15214 1 2 0.0 -20.552560 -5.693925 159.021142
15215 1 2 0.0 -23.624244 -3.822796 163.246454
15216 1 2 0.0 -22.597171 -6.201135 161.326507
15217 1 1 0.0 -36.365997 -9.095002 164.271245
15218 1 1 0.0 -39.280159 -6.883598 166.117601
15219 1 1 0.0 -36.492700 -1.340822 167.693281
15220 1 1 0.0 -38.856863 -2.990118 166.131576
15221 1 2 0.0 -35.751589 -11.271411 163.796356
15222 1 2 0.0 -38.878779 -3.632393 164.209741
15223 1 2 0.0 -35.721898 -8.113158 165.721174
15224 1 2 0.0 -37.427268 -2.647531 166.626671
15225 1 2 0.0 -39.859983 -1.001869 167.070925
15226 1 2 0.0 -35.978942 -8.553972 162.696963
15227 1 2 0.0 -39.144411 -4.712056 166.643890
15228 1 2 0.0 -37.994767 -8.358316 164.812882
15229 1 1 0.0 -31.413734 -9.754423 164.456079
15230 1 1 0.0 -34.400169 -7.955050 166.437533
15231 1 1 0.0 -31.660359 -2.752606 167.830584
15232 1 1 0.0 -33.986478 -4.259083 166.382990
15233 1 2 0.0 -30.795913 -11.739558 163.978638
15234 1 2 0.0 -33.948271 -4.711335 164.454162
15235 1 2 0.0 -30.796051 -8.907143 165.858575
15236 1 2 0.0 -32.559653 -3.923705 166.809665
15237 1 2 0.0 -35.047232 -2.496568 167.361659
15238 1 2 0.0 -30.989559 -9.106454 162.856484
15239 1 2 0.0 -34.284635 -5.935082 166.931084
15240 1 2 0.0 -33.066316 -9.183363 165.075873
15241 1 1 0.0 -26.436814 -10.146423 164.395124
15242 1 1 0.0 -29.479331 -8.748925 166.500683
15243 1 1 0.0 -26.771053 -3.945357 167.760754
15244 1 1 0.0 -29.068959 -5.295852 166.417558
15245 1 2 0.0 -25.824798 -11.922975 163.899944
15246 1 2 0.0 -28.982101 -5.572741 164.496831
15247 1 2 0.0 -25.834955 -9.430913 165.746572
15248 1 2 0.0 -27.642253 -4.973707 166.780705
15249 1 2 0.0 -30.179128 -3.763153 167.437558
15250 1 2 0.0 -25.981813 -9.416356 162.793355
15251 1 2 0.0 -29.376805 -6.899731 166.977752
15252 1 2 0.0 -28.108277 -9.736352 165.088401
15253 1 1 0.0 -21.434833 -10.266620 164.084354
15254 1 1 0.0 -24.518310 -9.269732 166.311223
15255 1 1 0.0 -21.823511 -4.914185 167.479167
15256 1 1 0.0 -24.104802 -6.102868 166.237562
15257 1 2 0.0 -20.837938 -11.815981 163.555068
15258 1 2 0.0 -23.980765 -6.219650 164.340567
15259 1 2 0.0 -20.837556 -9.676398 165.377719
15260 1 2 0.0 -22.674620 -5.795499 166.537882
15261 1 2 0.0 -25.256968 -4.806965 167.303652
15262 1 2 0.0 -20.955360 -9.479130 162.503401
15263 1 2 0.0 -24.421536 -7.609315 166.786972
15264 1 2 0.0 -23.120747 -10.018178 164.851291
15265 1 1 0.0 -36.594179 -12.964430 167.816859
15266 1 1 0.0 -39.652925 -10.679687 169.604530
15267 1 1 0.0 -37.371478 -5.124562 171.247203
15268 1 1 0.0 -39.470374 -6.766512 169.630448
15269 1 2 0.0 -35.832046 -15.152319 167.347039
15270 1 2 0.0 -39.353025 -7.420782 167.701515
15271 1 2 0.0 -36.117251 -11.988094 169.284623
15272 1 2 0.0 -38.138691 -6.445055 170.160974
15273 1 2 0.0 -40.593742 -4.726401 170.541941
15274 1 2 0.0 -36.158304 -12.429228 166.245968
15275 1 2 0.0 -39.677202 -8.496277 170.138076
15276 1 2 0.0 -38.250345 -12.191456 168.325794
15277 1 1 0.0 -31.749633 -13.677305 168.059461
15278 1 1 0.0 -34.892302 -11.841018 170.021749
15279 1 1 0.0 -32.637979 -6.568059 171.435366
15280 1 1 0.0 -34.708040 -8.114063 169.972022
15281 1 2 0.0 -30.987743 -15.673093 167.582934
15282 1 2 0.0 -34.522559 -8.587885 168.040374
15283 1 2 0.0 -31.300450 -12.814395 169.464261
15284 1 2 0.0 -33.373828 -7.772977 170.410438
15285 1 2 0.0 -35.894582 -6.313052 170.938972
15286 1 2 0.0 -31.266699 -13.034583 166.460497
15287 1 2 0.0 -34.933381 -9.801091 170.518268
15288 1 2 0.0 -33.434303 -13.093625 168.670079
15289 1 1 0.0 -26.872724 -14.039180 167.979456
15290 1 1 0.0 -30.078410 -12.640362 170.104102
15291 1 1 0.0 -27.826414 -7.711389 171.339670
15292 1 1 0.0 -29.881669 -9.146151 170.018987
15293 1 2 0.0 -26.123461 -15.825391 167.481095
15294 1 2 0.0 -29.642651 -9.453403 168.099529
15295 1 2 0.0 -26.437562 -13.287415 169.317829
15296 1 2 0.0 -28.541097 -8.792573 170.370958
15297 1 2 0.0 -31.119831 -7.588185 171.042621
15298 1 2 0.0 -26.350399 -13.313710 166.375599
15299 1 2 0.0 -30.125946 -10.763863 170.580047
15300 1 2 0.0 -28.579528 -13.639639 168.686479
15301 1 1 0.0 -21.962922 -14.044305 167.571558
15302 1 1 0.0 -25.212116 -13.083603 169.857030
15303 1 1 0.0 -22.935040 -8.547851 170.953777
15304 1 1 0.0 -24.991933 -9.866093 169.774442
15305 1 2 0.0 -21.238803 -15.601862 167.034784
15306 1 2 0.0 -24.713990 -10.021548 167.882888
15307 1 2 0.0 -21.527213 -13.396605 168.835589
15308 1 2 0.0 -23.639888 -9.501065 170.039933
15309 1 2 0.0 -26.271261 -8.559095 170.859757
15310 1 2 0.0 -21.408942 -13.260491 165.985661
15311 1 2 0.0 -25.255711 -11.388973 170.327490
15312 1 2 0.0 -23.686146 -13.830671 168.376076
15313 1 1 0.0 -36.783941 -16.837400 171.362474
15314 1 1 0.0 -39.971913 -14.483690 173.091459
15315 1 1 0.0 -38.216720 -8.917024 174.801126
15316 1 1 0.0 -40.035041 -10.552820 173.129320
15317 1 2 0.0 -35.875067 -19.035257 170.897723
15318 1 2 0.0 -39.777134 -11.217390 171.193289
15319 1 2 0.0 -36.480347 -15.867238 172.848072
15320 1 2 0.0 -38.810304 -10.251342 173.695277
15321 1 2 0.0 -41.273411 -8.464059 174.012957
15322 1 2 0.0 -36.301055 -16.307255 169.794973
15323 1 2 0.0 -40.158927 -12.289995 173.632263
15324 1 2 0.0 -38.458255 -16.029780 171.838706
15325 1 1 0.0 -32.077823 -17.600897 171.662842
15326 1 1 0.0 -35.361370 -15.730379 173.605966
15327 1 1 0.0 -33.610921 -10.384729 175.040149
15328 1 1 0.0 -35.410145 -11.972993 173.561054
15329 1 2 0.0 -31.173397 -19.606963 171.187230
15330 1 2 0.0 -35.075935 -12.467863 171.626585
15331 1 2 0.0 -31.803293 -16.721850 173.069948
15332 1 2 0.0 -34.177413 -11.624579 174.011210
15333 1 2 0.0 -36.716884 -10.135613 174.516285
15334 1 2 0.0 -31.537348 -16.963204 170.064510
15335 1 2 0.0 -35.561143 -13.671002 174.105452
15336 1 2 0.0 -33.785363 -17.005728 172.264284
15337 1 1 0.0 -27.331636 -17.929816 171.563787
15338 1 1 0.0 -30.685137 -16.530674 173.707522
15339 1 1 0.0 -28.905956 -11.471133 174.918587
15340 1 1 0.0 -30.704308 -12.994435 173.620416
15341 1 2 0.0 -26.447208 -19.726447 171.062246
15342 1 2 0.0 -30.311515 -13.332702 171.702227
15343 1 2 0.0 -27.069317 -17.140115 172.889086
15344 1 2 0.0 -29.458571 -12.607338 173.961212
15345 1 2 0.0 -32.064530 -11.412246 174.647684
15346 1 2 0.0 -26.742614 -17.209275 169.957844
15347 1 2 0.0 -30.884184 -14.626302 174.182343
15348 1 2 0.0 -29.064591 -17.541424 172.284557
15349 1 1 0.0 -22.544724 -17.817036 171.058762
15350 1 1 0.0 -25.944282 -16.891829 173.402838
15351 1 1 0.0 -24.099609 -12.167722 174.428387
15352 1 1 0.0 -25.918382 -13.621337 173.311321
15353 1 2 0.0 -21.696011 -19.384688 170.514500
15354 1 2 0.0 -25.484755 -13.817291 171.425209
15355 1 2 0.0 -22.276718 -17.109005 172.293458
15356 1 2 0.0 -24.653004 -13.196099 173.541985
15357 1 2 0.0 -27.318591 -12.303207 174.415862
15358 1 2 0.0 -21.916272 -17.037783 169.467920
15359 1 2 0.0 -26.129064 -15.161346 173.868008
15360 1 2 0.0 -24.296097 -17.638320 171.900861
15361 1 1 0.0 -36.931940 -20.714220 174.908088
15362 1 1 0.0 -40.232326 -18.296313 176.578389
15363 1 1 0.0 -39.025898 -12.718866 178.355049
15364 1 1 0.0 -40.547084 -14.349811 176.628192
15365 1 2 0.0 -35.877207 -22.920412 174.448406
15366 1 2 0.0 -40.147453 -15.022816 174.685063
15367 1 2 0.0 -36.808337 -19.750962 176.411522
15368 1 2 0.0 -39.439059 -14.067063 177.229580
15369 1 2 0.0 -41.894872 -12.215840 177.483972
15370 1 2 0.0 -36.404269 -20.188275 173.343978
15371 1 2 0.0 -40.585281 -16.094011 177.126449
15372 1 2 0.0 -38.614309 -19.873744 175.351618
15373 1 1 0.0 -32.397635 -21.525262 175.266224
15374 1 1 0.0 -35.805315 -19.623437 177.190183
15375 1 1 0.0 -34.578833 -14.202708 178.644932
15376 1 1 0.0 -36.091286 -15.836179 177.150086
15377 1 2 0.0 -31.352306 -23.541198 174.791526
15378 1 2 0.0 -35.606876 -16.351519 175.212796
15379 1 2 0.0 -32.304444 -20.629525 176.675635
15380 1 2 0.0 -34.969597 -15.478692 177.611983
15381 1 2 0.0 -37.512232 -13.964714 178.093598
15382 1 2 0.0 -31.800986 -20.892355 173.668523
15383 1 2 0.0 -36.166152 -17.545145 177.692636
15384 1 2 0.0 -34.118009 -20.919833 175.858489
15385 1 1 0.0 -27.815554 -21.818147 175.148118
15386 1 1 0.0 -31.300193 -20.419760 177.310942
15387 1 1 0.0 -30.011500 -15.224114 178.497503
15388 1 1 0.0 -31.537646 -16.840546 177.221844
15389 1 2 0.0 -26.798347 -23.626018 174.643396
15390 1 2 0.0 -30.989298 -17.210538 175.304925
15391 1 2 0.0 -27.732793 -20.988677 176.460342
15392 1 2 0.0 -30.396100 -16.417688 177.551465
15393 1 2 0.0 -33.013527 -15.235265 178.252747
15394 1 2 0.0 -27.160345 -21.102909 173.540088
15395 1 2 0.0 -31.652288 -18.486906 177.784638
15396 1 2 0.0 -29.564682 -21.441575 175.882635
15397 1 1 0.0 -23.184915 -21.584384 174.545966
15398 1 1 0.0 -26.718230 -20.693906 176.948645
15399 1 1 0.0 -25.321214 -15.772760 177.902998
15400 1 1 0.0 -26.887191 -17.367983 176.848201
15401 1 2 0.0 -22.214748 -23.164179 173.994215
15402 1 2 0.0 -26.295795 -17.606432 174.967531
15403 1 2 0.0 -23.091360 -20.812908 175.751328
15404 1 2 0.0 -25.717633 -16.879795 177.044037
15405 1 2 0.0 -28.401474 -16.038693 177.971966
15406 1 2 0.0 -22.481645 -20.810682 172.950179
15407 1 2 0.0 -27.044900 -18.925817 177.408526
15408 1 2 0.0 -24.954517 -21.440697 175.425645
15409 1 1 0.0 -37.033415 -24.595330 178.453702
15410 1 1 0.0 -40.427327 -22.118562 180.065318
15411 1 1 0.0 -39.795412 -16.531023 181.908971
15412 1 1 0.0 -41.001123 -18.158576 180.127063
15413 1 2 0.0 -35.833555 -26.808049 177.999089
15414 1 2 0.0 -40.458772 -18.837915 178.176837
15415 1 2 0.0 -37.097162 -23.639795 179.974971
15416 1 2 0.0 -40.020616 -17.893173 180.763883
15417 1 2 0.0 -42.452257 -15.983170 180.954988
15418 1 2 0.0 -36.463781 -24.072603 176.892983
15419 1 2 0.0 -40.950133 -19.909465 180.620635
15420 1 2 0.0 -38.712539 -23.723997 178.864530
15421 1 1 0.0 -32.708112 -25.450488 178.869606
15422 1 1 0.0 -36.221206 -23.520624 180.774400
15423 1 1 0.0 -35.541212 -18.022125 182.249714
15424 1 1 0.0 -36.749322 -19.704054 180.739118
15425 1 2 0.0 -31.523662 -27.475843 178.395822
15426 1 2 0.0 -36.113209 -20.239210 178.799008
15427 1 2 0.0 -32.803707 -24.537447 180.281322
15428 1 2 0.0 -35.749225 -19.335568 181.212755
15429 1 2 0.0 -38.277909 -17.801016 181.670911
15430 1 2 0.0 -32.056876 -24.822093 177.272536
15431 1 2 0.0 -36.745889 -21.423989 181.279820
15432 1 2 0.0 -34.430120 -24.836172 179.452695
15433 1 1 0.0 -28.327326 -25.703909 178.732449
15434 1 1 0.0 -31.924552 -24.307477 180.914362
15435 1 1 0.0 -31.145643 -18.969657 182.076419
15436 1 1 0.0 -32.382776 -20.684264 180.823273
15437 1 2 0.0 -27.180169 -27.523925 178.224547
15438 1 2 0.0 -31.676866 -21.086770 178.907622
15439 1 2 0.0 -28.431658 -24.832622 180.031599
15440 1 2 0.0 -31.355716 -20.223178 181.141718
15441 1 2 0.0 -33.967257 -19.057135 181.857810
15442 1 2 0.0 -27.606281 -24.994407 177.122332
15443 1 2 0.0 -32.431348 -22.345473 181.386934
15444 1 2 0.0 -30.081529 -25.339903 179.480713
15445 1 1 0.0 -23.890151 -25.345735 178.033170
15446 1 1 0.0 -27.538837 -24.489118 180.494452
15447 1 1 0.0 -26.605549 -19.361483 181.377608
15448 1 1 0.0 -27.902690 -21.105150 180.385080
15449 1 2 0.0 -22.802405 -26.939933 177.473931
15450 1 2 0.0 -27.151011 -21.388330 178.509852
15451 1 2 0.0 -23.978668 -24.507331 179.209198
15452 1 2 0.0 -26.838990 -20.551003 180.546088
15453 1 2 0.0 -29.523494 -19.764682 181.528071
15454 1 2 0.0 -23.111175 -24.578724 176.432438
15455 1 2 0.0 -28.007923 -22.681512 180.949045
15456 1 2 0.0 -25.666984 -25.237196 178.950430
15457 1 1 0.0 -26.485955 32.028473 139.257267
15458 1 1 0.0 -27.168384 33.587263 141.631789
15459 1 1 0.0 -19.588354 37.433183 142.604530
15460 1 1 0.0 -23.992176 36.597217 141.538282
15461 1 2 0.0 -27.674644 30.231407 138.736759
15462 1 2 0.0 -25.259562 36.396993 139.680327
15463 1 2 0.0 -24.420346 32.602828 140.546683
15464 1 2 0.0 -21.974988 36.747078 141.714496
15465 1 2 0.0 -23.395950 37.884962 142.728336
15466 1 2 0.0 -26.446823 32.657385 137.652468
15467 1 2 0.0 -25.281139 35.215428 142.092768
15468 1 2 0.0 -27.399413 32.581670 140.093225
15469 1 1 0.0 -21.934506 30.961785 138.922195
15470 1 1 0.0 -22.581823 32.495739 141.076134
15471 1 1 0.0 -15.356523 35.670618 142.284092
15472 1 1 0.0 -19.549938 35.298977 140.978255
15473 1 2 0.0 -23.064180 29.291770 138.436526
15474 1 2 0.0 -20.788212 35.327630 139.074811
15475 1 2 0.0 -19.938180 31.267037 140.303946
15476 1 2 0.0 -17.627031 35.235394 141.299264
15477 1 2 0.0 -18.964018 36.528208 142.062393
15478 1 2 0.0 -21.928718 31.681078 137.316918
15479 1 2 0.0 -20.773037 33.958878 141.542980
15480 1 2 0.0 -22.813757 31.576926 139.624577
15481 1 1 0.0 -17.530926 29.431251 139.032695
15482 1 1 0.0 -18.168183 30.948643 140.966457
15483 1 1 0.0 -11.364417 33.437405 142.447060
15484 1 1 0.0 -15.321424 33.518181 140.901253
15485 1 2 0.0 -18.579365 27.899589 138.566141
15486 1 2 0.0 -16.518997 33.750948 138.969104
15487 1 2 0.0 -15.619453 29.478422 140.501814
15488 1 2 0.0 -13.499723 33.246786 141.364977
15489 1 2 0.0 -14.768233 34.688414 141.888542
15490 1 2 0.0 -17.558026 30.214743 137.449708
15491 1 2 0.0 -16.461104 32.239047 141.453643
15492 1 2 0.0 -18.383814 30.110044 139.602253
15493 1 1 0.0 -13.277638 27.429271 139.596069
15494 1 1 0.0 -13.924654 28.953378 141.295508
15495 1 1 0.0 -7.617388 30.723037 143.104228
15496 1 1 0.0 -11.304387 31.259904 141.302198
15497 1 2 0.0 -14.222705 26.045835 139.134180
15498 1 2 0.0 -12.449093 31.674031 139.356227
15499 1 2 0.0 -11.469045 27.223462 141.153442
15500 1 2 0.0 -9.595052 30.776957 141.915968
15501 1 2 0.0 -10.803066 32.376892 142.195261
15502 1 2 0.0 -13.337512 28.249191 138.059620
15503 1 2 0.0 -12.342829 30.061870 141.818861
15504 1 2 0.0 -14.109069 28.182548 140.024780
15505 1 1 0.0 -27.844912 28.395570 142.802882
15506 1 1 0.0 -28.765875 30.118487 145.118718
15507 1 1 0.0 -21.527104 34.062877 146.158452
15508 1 1 0.0 -25.794324 33.214248 145.037154
15509 1 2 0.0 -28.881291 26.540099 142.287442
15510 1 2 0.0 -26.949463 32.963420 143.172101
15511 1 2 0.0 -25.891553 28.994467 144.110132
15512 1 2 0.0 -23.804683 33.338649 145.248799
15513 1 2 0.0 -25.344457 34.616067 146.199352
15514 1 2 0.0 -27.753903 29.001189 141.201473
15515 1 2 0.0 -27.014812 31.803524 145.586954
15516 1 2 0.0 -28.847988 29.019428 143.606137
15517 1 1 0.0 -23.166909 27.222289 142.525577
15518 1 1 0.0 -24.076837 28.874368 144.660351
15519 1 1 0.0 -17.168757 32.173505 145.888875
15520 1 1 0.0 -21.239158 31.758252 144.567286
15521 1 2 0.0 -24.145587 25.504894 142.040822
15522 1 2 0.0 -22.354403 31.733692 142.661022
15523 1 2 0.0 -21.282882 27.563952 143.909633
15524 1 2 0.0 -19.334393 31.690346 144.900037
15525 1 2 0.0 -20.811682 33.080733 145.639706
15526 1 2 0.0 -23.096798 27.920303 140.920931
15527 1 2 0.0 -22.401997 30.392288 145.130164
15528 1 2 0.0 -24.146884 27.882054 143.218783
15529 1 1 0.0 -18.611281 25.665132 142.617026
15530 1 1 0.0 -19.530444 27.254440 144.569876
15531 1 1 0.0 -13.012084 29.888188 146.025977
15532 1 1 0.0 -16.863309 29.897387 144.502682
15533 1 2 0.0 -19.513094 24.097957 142.147292
15534 1 2 0.0 -17.929953 30.075768 142.571802
15535 1 2 0.0 -16.809212 25.759407 144.073070
15536 1 2 0.0 -15.049431 29.641463 144.955231
15537 1 2 0.0 -16.477361 31.139462 145.493605
15538 1 2 0.0 -18.562941 26.429722 141.031952
15539 1 2 0.0 -17.952170 28.596137 145.055939
15540 1 2 0.0 -19.574481 26.362707 143.200330
15541 1 1 0.0 -14.180035 23.717806 143.083273
15542 1 1 0.0 -15.124377 25.264812 144.841316
15543 1 1 0.0 -9.061590 27.198085 146.578838
15544 1 1 0.0 -12.664890 27.635911 144.839077
15545 1 2 0.0 -14.985871 22.311869 142.613895
15546 1 2 0.0 -13.673729 27.995627 142.898548
15547 1 2 0.0 -12.474572 23.569664 144.611312
15548 1 2 0.0 -10.951466 27.188392 145.418020
15549 1 2 0.0 -12.336847 28.801760 145.751366
15550 1 2 0.0 -14.154643 24.521762 141.541879
15551 1 2 0.0 -13.663242 26.420001 145.359379
15552 1 2 0.0 -15.130356 24.462646 143.549565
15553 1 1 0.0 -29.165324 24.750378 146.348496
15554 1 1 0.0 -30.310822 26.629766 148.605648
15555 1 1 0.0 -23.430800 30.674715 149.712375
15556 1 1 0.0 -27.545466 29.808689 148.536026
15557 1 2 0.0 -30.051240 22.838601 145.838126
15558 1 2 0.0 -28.584816 29.508113 146.663875
15559 1 2 0.0 -27.330945 25.374622 147.673581
15560 1 2 0.0 -25.592736 29.910954 148.783102
15561 1 2 0.0 -27.236516 31.319576 149.670367
15562 1 2 0.0 -29.022322 25.333362 144.750478
15563 1 2 0.0 -28.697440 28.370005 149.081140
15564 1 2 0.0 -30.249184 25.441221 147.119049
15565 1 1 0.0 -24.391578 23.480329 146.128958
15566 1 1 0.0 -25.549315 25.244442 148.244568
15567 1 1 0.0 -18.976101 28.673902 149.493657
15568 1 1 0.0 -22.908060 28.208527 148.156318
15569 1 2 0.0 -25.220939 21.716337 145.645118
15570 1 2 0.0 -23.897843 28.130690 146.247234
15571 1 2 0.0 -22.626051 23.860313 147.515320
15572 1 2 0.0 -21.030677 28.140172 148.500809
15573 1 2 0.0 -22.633207 29.620480 149.217019
15574 1 2 0.0 -24.258024 24.157466 144.524944
15575 1 2 0.0 -24.009983 26.816816 148.717348
15576 1 2 0.0 -25.463185 24.181514 146.812988
15577 1 1 0.0 -19.714715 21.906369 146.201357
15578 1 1 0.0 -20.900176 23.563073 148.173296
15579 1 1 0.0 -14.685027 26.351845 149.604893
15580 1 1 0.0 -18.415563 26.281185 148.104110
15581 1 2 0.0 -20.471413 20.303152 145.728442
15582 1 2 0.0 -19.349954 26.404193 146.174499
15583 1 2 0.0 -18.027717 22.050768 147.644327
15584 1 2 0.0 -16.618625 26.045156 148.545484
15585 1 2 0.0 -18.190658 27.592549 149.098668
15586 1 2 0.0 -19.592808 22.652206 144.614197
15587 1 2 0.0 -19.452330 24.957078 148.658235
15588 1 2 0.0 -20.778877 22.619997 146.798408
15589 1 1 0.0 -15.136322 20.023521 146.570477
15590 1 1 0.0 -16.361581 21.590472 148.387123
15591 1 1 0.0 -10.561233 23.701371 150.053448
15592 1 1 0.0 -14.066450 24.030103 148.375957
15593 1 2 0.0 -15.804273 18.593239 146.093611
15594 1 2 0.0 -14.939207 24.333496 146.440869
15595 1 2 0.0 -13.539126 19.937171 148.069182
15596 1 2 0.0 -12.357932 23.622984 148.920072
15597 1 2 0.0 -13.905105 25.243484 149.307471
15598 1 2 0.0 -15.028531 20.811407 145.024138
15599 1 2 0.0 -15.022819 22.794715 148.899897
15600 1 2 0.0 -16.195926 20.757665 147.074350
15601 1 1 0.0 -30.449967 21.093784 149.894111
15602 1 1 0.0 -31.806918 23.122504 152.092577
15603 1 1 0.0 -25.302322 27.270166 153.266297
15604 1 1 0.0 -29.249697 26.382354 152.034898
15605 1 2 0.0 -31.186990 19.127608 149.388809
15606 1 2 0.0 -30.170233 26.032909 150.155649
15607 1 2 0.0 -28.740781 21.744109 151.237031
15608 1 2 0.0 -27.342520 26.465555 152.317405
15609 1 2 0.0 -29.076725 27.997737 153.141383
15610 1 2 0.0 -30.255096 21.654813 148.299483
15611 1 2 0.0 -30.332812 24.916476 152.575326
15612 1 2 0.0 -31.606382 21.848190 150.631961
15613 1 1 0.0 -25.609070 19.736080 149.732340
15614 1 1 0.0 -27.000841 21.606563 151.828784
15615 1 1 0.0 -20.778957 25.172014 153.098440
15616 1 1 0.0 -24.558275 24.650527 151.745350
15617 1 2 0.0 -26.290650 17.926214 149.249414
15618 1 2 0.0 -25.420456 24.519388 149.833445
15619 1 2 0.0 -23.967795 20.156160 151.121006
15620 1 2 0.0 -22.716781 24.585289 152.101582
15621 1 2 0.0 -24.430722 26.148488 152.794332
15622 1 2 0.0 -25.412930 20.392728 148.128957
15623 1 2 0.0 -25.598549 23.233122 152.304532
15624 1 2 0.0 -26.763862 20.475709 150.407193
15625 1 1 0.0 -20.839564 18.154434 149.785689
15626 1 1 0.0 -22.276856 19.874343 151.776716
15627 1 1 0.0 -16.381168 22.827318 153.183809
15628 1 1 0.0 -19.977354 22.669208 151.705539
15629 1 2 0.0 -21.452647 16.514709 149.309593
15630 1 2 0.0 -20.778237 22.735916 149.777197
15631 1 2 0.0 -19.272929 18.351768 151.215584
15632 1 2 0.0 -18.205727 22.457133 152.135737
15633 1 2 0.0 -19.907785 24.047507 152.703731
15634 1 2 0.0 -20.645678 18.881612 148.196441
15635 1 2 0.0 -20.960908 21.321583 152.260530
15636 1 2 0.0 -21.996024 18.881582 150.396486
15637 1 1 0.0 -16.142616 16.345178 150.057681
15638 1 1 0.0 -17.633630 17.929358 151.932930
15639 1 1 0.0 -12.111760 20.230575 153.528058
15640 1 1 0.0 -15.505771 20.441019 151.912836
15641 1 2 0.0 -16.674145 14.888900 149.573327
15642 1 2 0.0 -16.242075 20.686262 149.983191
15643 1 2 0.0 -14.658518 16.324470 151.527052
15644 1 2 0.0 -13.810392 20.078855 152.422123
15645 1 2 0.0 -15.505033 21.700690 152.863575
15646 1 2 0.0 -15.954747 17.116793 148.506398
15647 1 2 0.0 -16.418652 19.184782 152.440415
15648 1 2 0.0 -17.302621 17.066540 150.599135
15649 1 1 0.0 -31.700753 17.426397 153.439725
15650 1 1 0.0 -33.256698 19.597661 155.579506
15651 1 1 0.0 -27.143681 23.850253 156.820220
15652 1 1 0.0 -30.909872 22.936506 155.533769
15653 1 2 0.0 -32.290249 15.407594 152.939492
15654 1 2 0.0 -31.708937 22.539093 153.647423
15655 1 2 0.0 -30.122613 18.103489 154.800480
15656 1 2 0.0 -29.056391 23.003540 155.851708
15657 1 2 0.0 -30.868289 24.652116 156.612399
15658 1 2 0.0 -31.454323 17.966172 151.848488
15659 1 2 0.0 -31.923548 21.444046 156.069512
15660 1 2 0.0 -32.921904 18.241117 154.144873
15661 1 1 0.0 -26.819770 15.989666 153.335722
15662 1 1 0.0 -28.432502 17.961145 155.413001
15663 1 1 0.0 -22.577606 21.667982 156.703223
15664 1 1 0.0 -26.190941 21.084754 155.334382
15665 1 2 0.0 -27.355000 14.134602 152.853710
15666 1 2 0.0 -26.923585 20.900324 153.419657
15667 1 2 0.0 -25.308189 16.451520 154.726693
15668 1 2 0.0 -24.393331 21.025985 155.702354
15669 1 2 0.0 -26.205711 22.665484 156.371645
15670 1 2 0.0 -26.561887 16.626201 151.732970
15671 1 2 0.0 -27.168774 19.641661 155.891716
15672 1 2 0.0 -28.049740 16.764917 154.001399
15673 1 1 0.0 -21.984684 14.408961 153.370020
15674 1 1 0.0 -23.660122 16.188113 155.380136
15675 1 1 0.0 -18.099057 19.313869 156.762725
15676 1 1 0.0 -21.548102 19.061197 155.306967
15677 1 2 0.0 -22.455652 12.732310 152.890743
15678 1 2 0.0 -22.214265 19.070727 153.379895
15679 1 2 0.0 -20.543446 14.661901 154.786840
15680 1 2 0.0 -19.809635 18.876886 155.725990
15681 1 2 0.0 -21.628505 20.504223 156.308794
15682 1 2 0.0 -21.720200 15.117530 151.778685
15683 1 2 0.0 -22.477439 17.689456 155.862826
15684 1 2 0.0 -23.225248 15.147237 153.994564
15685 1 1 0.0 -17.196247 12.681925 153.544885
15686 1 1 0.0 -18.938717 14.280785 155.478738
15687 1 1 0.0 -13.709991 16.784078 157.002668
15688 1 1 0.0 -16.980555 16.867642 155.449716
15689 1 2 0.0 -17.592919 11.198139 153.053042
15690 1 2 0.0 -17.579918 17.052964 153.525512
15691 1 2 0.0 -15.829869 12.730524 154.984922
15692 1 2 0.0 -15.306020 16.554698 155.924175
15693 1 2 0.0 -17.134673 18.172421 156.419680
15694 1 2 0.0 -16.930215 13.436996 151.988657
15695 1 2 0.0 -17.848731 15.589349 155.980933
15696 1 2 0.0 -18.448268 13.388541 154.123919
15697 1 1 0.0 -32.918915 13.748610 156.985339
15698 1 1 0.0 -34.661781 16.055854 159.066435
15699 1 1 0.0 -28.956227 20.415665 160.374142
15700 1 1 0.0 -32.527899 19.471990 159.032641
15701 1 2 0.0 -33.362095 11.678858 156.490175
15702 1 2 0.0 -33.203110 19.027534 157.139197
15703 1 2 0.0 -31.477436 14.453121 158.363929
15704 1 2 0.0 -30.735923 19.525639 159.386011
15705 1 2 0.0 -32.613359 21.283764 160.083414
15706 1 2 0.0 -32.621390 14.267856 155.397494
15707 1 2 0.0 -33.471356 17.953439 159.563698
15708 1 2 0.0 -34.197246 14.620505 157.657785
15709 1 1 0.0 -28.023924 12.241165 156.939104
15710 1 1 0.0 -29.844992 14.308450 158.997218
15711 1 1 0.0 -24.372235 18.161903 160.308005
15712 1 1 0.0 -27.806816 17.511544 158.923414
15713 1 2 0.0 -28.414168 10.341552 156.458006
15714 1 2 0.0 -28.408140 17.273860 157.005868
15715 1 2 0.0 -26.647280 12.746409 158.332380
15716 1 2 0.0 -26.060745 17.462455 159.303127
15717 1 2 0.0 -27.959169 19.171954 159.948958
15718 1 2 0.0 -27.705142 12.857958 155.336983
15719 1 2 0.0 -28.721359 16.042731 159.478900
15720 1 2 0.0 -29.321350 13.049319 157.595604
15721 1 1 0.0 -23.149337 10.669715 156.954351
15722 1 1 0.0 -25.049745 12.504296 158.983555
15723 1 1 0.0 -19.837722 15.811001 160.341641
15724 1 1 0.0 -23.127418 15.456981 158.908396
15725 1 2 0.0 -23.479705 8.955756 156.471894
15726 1 2 0.0 -23.657678 15.408479 156.982592
15727 1 2 0.0 -21.838367 10.980843 158.358097
15728 1 2 0.0 -21.429612 15.304073 159.316244
15729 1 2 0.0 -23.352659 16.962616 159.913857
15730 1 2 0.0 -22.815477 11.359692 155.360930
15731 1 2 0.0 -24.001618 14.060567 159.465121
15732 1 2 0.0 -24.466115 11.416815 157.592642
15733 1 1 0.0 -18.295488 9.033212 157.032090
15734 1 1 0.0 -20.275687 10.644313 159.024545
15735 1 1 0.0 -15.353791 13.360791 160.477278
15736 1 1 0.0 -18.489266 13.309291 158.986595
15737 1 2 0.0 -18.558973 7.520504 156.532758
15738 1 2 0.0 -18.951103 13.432951 157.067833
15739 1 2 0.0 -17.051331 9.154664 158.442791
15740 1 2 0.0 -16.842919 13.049635 159.426227
15741 1 2 0.0 -18.792711 14.658036 159.975785
15742 1 2 0.0 -17.952894 9.771401 155.470916
15743 1 2 0.0 -19.311747 12.007863 159.521451
15744 1 2 0.0 -19.631472 9.723195 157.648704
15745 1 1 0.0 -34.105119 10.060634 160.530954
15746 1 1 0.0 -36.023015 12.497402 162.553365
15747 1 1 0.0 -30.740777 16.966816 163.928065
15748 1 1 0.0 -34.104910 15.989308 162.531513
15749 1 2 0.0 -34.403068 7.941550 160.040858
15750 1 2 0.0 -34.654091 15.498766 160.630971
15751 1 2 0.0 -32.805778 10.793194 161.927378
15752 1 2 0.0 -32.382059 16.032287 162.920314
15753 1 2 0.0 -34.313223 17.893313 163.554430
15754 1 2 0.0 -33.757106 10.560109 158.946499
15755 1 2 0.0 -34.977185 14.445057 163.057884
15756 1 2 0.0 -35.433202 10.986623 161.170698
15757 1 1 0.0 -29.221666 8.490620 160.542485
15758 1 1 0.0 -31.238677 10.648617 162.581434
15759 1 1 0.0 -26.162960 14.653835 163.912788
15760 1 1 0.0 -29.406353 13.931098 162.512446
15761 1 2 0.0 -29.468243 6.547087 160.062302
15762 1 2 0.0 -29.874681 13.640218 160.592080
15763 1 2 0.0 -27.985096 9.040838 161.938066
15764 1 2 0.0 -27.719276 13.894815 162.903899
15765 1 2 0.0 -29.691694 15.668190 163.526271
15766 1 2 0.0 -28.842838 9.088043 158.940996
15767 1 2 0.0 -30.256693 12.436496 163.066084
15768 1 2 0.0 -30.578974 9.329007 161.189809
15769 1 1 0.0 -24.333124 6.936569 160.538682
15770 1 1 0.0 -26.445602 8.822845 162.586975
15771 1 1 0.0 -21.596572 12.318416 163.920557
15772 1 1 0.0 -24.715073 11.856459 162.509824
15773 1 2 0.0 -24.524444 5.184945 160.053044
15774 1 2 0.0 -25.108253 11.749085 160.585290
15775 1 2 0.0 -23.157217 7.308421 161.929354
15776 1 2 0.0 -23.065216 11.738490 162.906497
15777 1 2 0.0 -25.080151 13.422643 163.518920
15778 1 2 0.0 -23.930987 7.607941 158.943174
15779 1 2 0.0 -25.533276 10.434845 163.067417
15780 1 2 0.0 -25.718395 7.690238 161.190720
15781 1 1 0.0 -19.439410 5.398743 160.519294
15782 1 1 0.0 -21.643935 7.019714 162.570352
15783 1 1 0.0 -17.041869 9.960057 163.951889
15784 1 1 0.0 -20.030993 9.765563 162.523475
15785 1 2 0.0 -19.571492 3.855771 160.012473
15786 1 2 0.0 -20.354627 9.825823 160.610155
15787 1 2 0.0 -18.321927 5.596538 161.900661
15788 1 2 0.0 -18.419957 9.563142 162.928278
15789 1 2 0.0 -20.478359 11.157149 163.531890
15790 1 2 0.0 -19.021599 6.119652 158.953175
15791 1 2 0.0 -20.806970 8.440015 163.061969
15792 1 2 0.0 -20.851487 6.070253 161.173489
15793 1 1 0.0 -35.259513 6.362519 164.076568
15794 1 1 0.0 -37.340547 8.922362 166.040294
15795 1 1 0.0 -32.497681 13.503886 167.481987
15796 1 1 0.0 -35.641362 12.488663 166.030385
15797 1 2 0.0 -35.413217 4.195684 163.591542
15798 1 2 0.0 -36.062498 11.953035 164.122745
15799 1 2 0.0 -34.107740 7.123747 165.490827
15800 1 2 0.0 -33.995191 12.523665 166.454617
15801 1 2 0.0 -35.968423 14.481026 167.025446
15802 1 2 0.0 -34.861766 6.843020 162.495504
15803 1 2 0.0 -36.441307 10.919015 166.552070
15804 1 2 0.0 -36.629937 7.339525 164.683610
15805 1 1 0.0 -30.413026 4.738040 164.145867
15806 1 1 0.0 -32.613617 6.981669 166.165651
15807 1 1 0.0 -27.949829 11.143803 167.517570
15808 1 1 0.0 -30.989734 10.343497 166.101478
15809 1 2 0.0 -30.517233 2.751210 163.666598
15810 1 2 0.0 -31.323464 9.999501 164.178291
15811 1 2 0.0 -29.321639 5.334808 165.543753
15812 1 2 0.0 -29.369027 10.323113 166.504672
15813 1 2 0.0 -31.403537 12.154315 167.103584
15814 1 2 0.0 -29.975028 5.316471 162.545009
15815 1 2 0.0 -31.774890 8.823004 166.653268
15816 1 2 0.0 -31.822669 5.604003 164.784015
15817 1 1 0.0 -25.535957 3.209494 164.123014
15818 1 1 0.0 -27.847675 5.143754 166.190395
15819 1 1 0.0 -23.375356 8.835983 167.499474
15820 1 1 0.0 -26.310974 8.259588 166.111253
15821 1 2 0.0 -25.589837 1.419869 163.634195
15822 1 2 0.0 -26.565888 8.092504 164.187988
15823 1 2 0.0 -24.499902 3.644602 165.500611
15824 1 2 0.0 -24.716265 8.180052 166.496750
15825 1 2 0.0 -26.810942 9.884282 167.123983
15826 1 2 0.0 -25.066541 3.862219 162.525418
15827 1 2 0.0 -27.072364 6.812269 166.669712
15828 1 2 0.0 -26.982041 3.967491 164.788797
15829 1 1 0.0 -20.627805 1.778451 164.006498
15830 1 1 0.0 -23.043357 3.406947 166.116160
15831 1 1 0.0 -18.773670 6.581593 167.426499
15832 1 1 0.0 -21.605368 6.236295 166.060355
15833 1 2 0.0 -20.630404 0.203919 163.492189
15834 1 2 0.0 -21.790028 6.231395 164.152476
15835 1 2 0.0 -19.641465 2.056077 165.358531
15836 1 2 0.0 -20.036665 6.095002 166.430330
15837 1 2 0.0 -22.191288 7.669598 167.087994
15838 1 2 0.0 -20.135898 2.481619 162.435435
15839 1 2 0.0 -22.334192 4.885716 166.602487
15840 1 2 0.0 -22.108162 2.429662 164.698273
15841 1 1 0.0 -36.381746 2.654150 167.622182
15842 1 1 0.0 -38.613829 5.330527 169.527223
15843 1 1 0.0 -34.226851 10.026829 171.035910
15844 1 1 0.0 -37.137071 8.969973 169.529256
15845 1 2 0.0 -36.392101 0.441138 167.142225
15846 1 2 0.0 -37.428271 8.390317 167.614519
15847 1 2 0.0 -35.383010 3.444665 169.054277
15848 1 2 0.0 -35.575185 8.999713 169.988920
15849 1 2 0.0 -37.578794 11.046824 170.496461
15850 1 2 0.0 -35.935172 3.116528 166.044509
15851 1 2 0.0 -37.863334 7.375148 170.046256
15852 1 2 0.0 -37.786994 3.679059 168.196522
15853 1 1 0.0 -31.597933 0.983404 167.749249
15854 1 1 0.0 -33.969578 3.307517 169.749868
15855 1 1 0.0 -29.732829 7.631801 171.122353
15856 1 1 0.0 -32.556884 6.748707 169.690510
15857 1 2 0.0 -31.561064 -1.046098 167.270894
15858 1 2 0.0 -32.754466 6.351698 167.764502
15859 1 2 0.0 -30.656896 1.628314 169.149440
15860 1 2 0.0 -31.009963 6.747332 170.105444
15861 1 2 0.0 -33.094620 8.630291 170.680898
15862 1 2 0.0 -31.101676 1.543232 166.149023
15863 1 2 0.0 -33.275788 5.202188 170.240452
15864 1 2 0.0 -33.052275 1.874251 168.378220
15865 1 1 0.0 -26.758045 -0.511442 167.707345
15866 1 1 0.0 -29.256041 1.467051 169.793815
15867 1 1 0.0 -25.174137 5.363736 171.078390
15868 1 1 0.0 -27.915158 4.666387 169.712682
15869 1 2 0.0 -26.676179 -2.339390 167.215346
15870 1 2 0.0 -28.030593 4.438740 167.790686
15871 1 2 0.0 -25.866707 -0.010511 169.071867
15872 1 2 0.0 -26.382820 4.628789 170.087004
15873 1 2 0.0 -28.545045 6.347539 170.729046
15874 1 2 0.0 -26.222265 0.122565 166.107662
15875 1 2 0.0 -28.618951 3.192869 170.272008
15876 1 2 0.0 -28.257185 0.248618 168.386875
15877 1 1 0.0 -21.861163 -1.827506 167.493702
15878 1 1 0.0 -24.474342 -0.193840 169.661967
15879 1 1 0.0 -20.549332 3.225470 170.901109
15880 1 1 0.0 -23.212539 2.721552 169.597234
15881 1 2 0.0 -21.736371 -3.434869 166.971905
15882 1 2 0.0 -23.257351 2.649687 167.694797
15883 1 2 0.0 -21.010530 -1.466508 168.816401
15884 1 2 0.0 -21.693200 2.645288 169.932382
15885 1 2 0.0 -23.931598 4.195434 170.644099
15886 1 2 0.0 -21.296078 -1.142611 165.917694
15887 1 2 0.0 -23.893711 1.345093 170.143006
15888 1 2 0.0 -23.401923 -1.198432 168.223058
15889 1 1 0.0 -37.470937 -1.064752 171.167797
15890 1 1 0.0 -39.841581 1.721410 173.014153
15891 1 1 0.0 -35.927758 6.535377 174.589833
15892 1 1 0.0 -38.591198 5.432866 173.028128
15893 1 2 0.0 -37.338757 -3.322357 170.692908
15894 1 2 0.0 -38.750672 4.810318 171.106293
15895 1 2 0.0 -36.630829 -0.244325 172.617726
15896 1 2 0.0 -37.121381 5.460123 173.523223
15897 1 2 0.0 -39.143451 7.590273 173.967477
15898 1 2 0.0 -36.976625 -0.619576 169.593514
15899 1 2 0.0 -39.242190 3.813000 173.540442
15900 1 2 0.0 -38.903261 0.004849 171.709434
15901 1 1 0.0 -32.776211 -2.773346 171.352631
15902 1 1 0.0 -35.306012 -0.374046 173.334085
15903 1 1 0.0 -31.511887 4.117790 174.727136
15904 1 1 0.0 -34.107470 3.146580 173.279542
15905 1 2 0.0 -32.599579 -4.844883 170.875190
15906 1 2 0.0 -34.167377 2.696688 171.350714
15907 1 2 0.0 -31.990829 -2.078658 172.755127
15908 1 2 0.0 -32.641907 3.167392 173.706217
15909 1 2 0.0 -34.764535 5.095919 174.258211
15910 1 2 0.0 -32.222659 -2.231711 169.753036
15911 1 2 0.0 -34.758947 1.573860 173.827636
15912 1 2 0.0 -34.267396 -1.860381 171.972425
15913 1 1 0.0 -27.999917 -4.226072 171.291676
15914 1 1 0.0 -30.670881 -2.207195 173.397234
15915 1 1 0.0 -26.993296 1.901868 174.657306
15916 1 1 0.0 -29.527795 1.076929 173.314110
15917 1 2 0.0 -27.784116 -6.092655 170.796496
15918 1 2 0.0 -29.502490 0.787841 171.393383
15919 1 2 0.0 -27.258316 -3.656672 172.643124
15920 1 2 0.0 -28.065192 1.084843 173.677257
15921 1 2 0.0 -30.282524 2.812447 174.334109
15922 1 2 0.0 -27.398611 -3.610885 169.689907
15923 1 2 0.0 -30.173230 -0.423275 173.874303
15924 1 2 0.0 -29.544149 -3.466272 171.984953
15925 1 1 0.0 -23.140718 -5.418737 170.980906
15926 1 1 0.0 -25.937804 -3.782299 173.207775
15927 1 1 0.0 -22.369694 -0.107885 174.375719
15928 1 1 0.0 -24.853181 -0.778367 173.134114
15929 1 2 0.0 -22.890845 -7.060189 170.451620
15930 1 2 0.0 -24.757149 -0.919083 171.237118
15931 1 2 0.0 -22.430525 -4.970711 172.274270
15932 1 2 0.0 -23.390361 -0.785630 173.434433
15933 1 2 0.0 -25.699830 0.734920 174.200204
15934 1 2 0.0 -22.503169 -4.752730 169.399953
15935 1 2 0.0 -25.486352 -2.181505 173.683524
15936 1 2 0.0 -24.733809 -4.813681 171.747843
15937 1 1 0.0 -38.525596 -4.794662 174.713411
15938 1 1 0.0 -41.021678 -1.905796 176.501082
15939 1 1 0.0 -37.599383 3.029010 178.143755
15940 1 1 0.0 -40.002179 1.876649 176.527000
15941 1 2 0.0 -38.251613 -7.095236 174.243591
15942 1 2 0.0 -40.028222 1.212449 174.598067
15943 1 2 0.0 -37.849936 -3.943678 176.181175
15944 1 2 0.0 -38.632526 1.904318 177.057526
15945 1 2 0.0 -40.660720 4.110554 177.438493
15946 1 2 0.0 -37.984860 -4.365673 173.142519
15947 1 2 0.0 -40.576019 0.231787 177.034628
15948 1 2 0.0 -39.976875 -3.683733 175.222346
15949 1 1 0.0 -33.947560 -6.532305 174.956012
15950 1 1 0.0 -36.622008 -4.063368 176.918301
15951 1 1 0.0 -33.286860 0.601699 178.331918
15952 1 1 0.0 -35.640869 -0.463158 176.868574
15953 1 2 0.0 -33.632518 -8.645216 174.479486
15954 1 2 0.0 -35.561582 -0.965775 174.936925
15955 1 2 0.0 -33.323379 -5.786130 176.360813
15956 1 2 0.0 -34.264527 -0.416862 177.306989
15957 1 2 0.0 -36.412506 1.550818 177.835524
15958 1 2 0.0 -33.337751 -6.008426 173.357049
15959 1 2 0.0 -36.223603 -2.062302 177.414820
15960 1 2 0.0 -35.467370 -5.600117 175.566631
15961 1 1 0.0 -29.262463 -7.934111 174.876007
15962 1 1 0.0 -32.092498 -5.878868 177.000654
15963 1 1 0.0 -28.833569 -1.549245 178.236222
15964 1 1 0.0 -31.149204 -2.508644 176.915539
15965 1 2 0.0 -28.914700 -9.839630 174.377647
15966 1 2 0.0 -30.981824 -2.860094 174.996081
15967 1 2 0.0 -28.675868 -7.293468 176.214381
15968 1 2 0.0 -29.763966 -2.451515 177.267510
15969 1 2 0.0 -32.023502 -0.720933 177.939172
15970 1 2 0.0 -28.596396 -7.337886 173.272151
15971 1 2 0.0 -31.735530 -4.036022 177.476599
15972 1 2 0.0 -30.843473 -7.176998 175.583031
15973 1 1 0.0 -24.468551 -8.994578 174.468110
15974 1 1 0.0 -27.435258 -7.357856 176.753582
15975 1 1 0.0 -24.236367 -3.417651 177.850329
15976 1 1 0.0 -26.528554 -4.262903 176.670993
15977 1 2 0.0 -24.096190 -10.671384 173.931336
15978 1 2 0.0 -26.290528 -4.474472 174.779440
15979 1 2 0.0 -23.903793 -8.455686 175.732140
15980 1 2 0.0 -25.129648 -4.197058 176.936485
15981 1 2 0.0 -27.497006 -2.711443 177.756309
15982 1 2 0.0 -23.759026 -8.348178 172.882212
15983 1 2 0.0 -27.113539 -5.693474 177.224042
15984 1 2 0.0 -26.105562 -8.415497 175.272628
15985 1 1 0.0 -39.543496 -8.536291 178.259025
15986 1 1 0.0 -42.150957 -5.552290 179.988011
15987 1 1 0.0 -39.240131 -0.493084 181.697678
15988 1 1 0.0 -41.367588 -1.699751 180.025872
15989 1 2 0.0 -39.128345 -10.878145 177.794274
15990 1 2 0.0 -41.258574 -2.404225 178.089841
15991 1 2 0.0 -39.038444 -7.654075 179.744624
15992 1 2 0.0 -40.106676 -1.668604 180.591829
15993 1 2 0.0 -42.127984 0.606390 180.909509
15994 1 2 0.0 -38.957934 -8.122347 176.691525
15995 1 2 0.0 -41.862019 -3.369679 180.528814
15996 1 2 0.0 -41.005051 -7.387625 178.735258
15997 1 1 0.0 -35.111534 -10.293614 178.559394
15998 1 1 0.0 -37.916207 -7.760962 180.502518
15999 1 1 0.0 -35.057526 -2.916586 181.936701
16000 1 1 0.0 -37.156115 -4.080937 180.457606
16001 1 2 0.0 -34.659497 -12.447204 178.083782
16002 1 2 0.0 -36.936101 -4.636082 178.523137
16003 1 2 0.0 -34.654453 -9.494134 179.966500
16004 1 2 0.0 -35.877305 -4.005670 180.907762
16005 1 2 0.0 -38.037321 -2.005603 181.412837
16006 1 2 0.0 -34.446610 -9.787016 176.961062
16007 1 2 0.0 -37.668605 -5.706787 181.002004
16008 1 2 0.0 -36.651209 -9.345289 179.160836
16009 1 1 0.0 -30.547018 -11.635133 178.460339
16010 1 1 0.0 -33.521342 -9.547799 180.604074
16011 1 1 0.0 -30.696105 -4.989018 181.815138
16012 1 1 0.0 -32.779878 -6.090113 180.516967
16013 1 2 0.0 -30.069490 -13.579886 177.958797
16014 1 2 0.0 -32.468985 -6.504911 178.598779
16015 1 2 0.0 -30.121069 -10.920286 179.785637
16016 1 2 0.0 -31.480051 -5.979863 180.857763
16017 1 2 0.0 -33.768174 -4.252508 181.544235
16018 1 2 0.0 -29.816872 -11.058060 176.854395
16019 1 2 0.0 -33.306352 -7.645160 181.078894
16020 1 2 0.0 -32.155965 -10.883287 179.181109
16021 1 1 0.0 -25.847777 -12.554034 177.955314
16022 1 1 0.0 -28.968963 -10.919654 180.299389
16023 1 1 0.0 -26.151874 -6.702544 181.324939
16024 1 1 0.0 -28.240610 -7.731192 180.207873
16025 1 2 0.0 -25.355905 -14.267484 177.411051
16026 1 2 0.0 -27.859245 -8.015782 178.321761
16027 1 2 0.0 -25.433831 -11.920170 179.190010
16028 1 2 0.0 -26.913402 -7.587915 180.438537
16029 1 2 0.0 -29.324724 -6.142876 181.312413
16030 1 2 0.0 -25.066501 -11.928099 176.364472
16031 1 2 0.0 -28.777422 -9.189906 180.764560
16032 1 2 0.0 -27.519785 -12.003003 178.797412
16033 1 1 0.0 -40.521437 -12.290658 181.804640
16034 1 1 0.0 -43.224883 -9.219795 183.474940
16035 1 1 0.0 -40.847674 -4.032091 185.251600
16036 1 1 0.0 -42.683901 -5.297896 183.524743
16037 1 2 0.0 -39.965629 -14.672006 181.344958
16038 1 2 0.0 -42.438290 -6.041075 181.581615
16039 1 2 0.0 -40.193652 -11.376491 183.308073
16040 1 2 0.0 -41.540998 -5.259951 184.126132
16041 1 2 0.0 -43.541437 -2.924082 184.380524
16042 1 2 0.0 -39.893039 -11.890443 180.240530
16043 1 2 0.0 -43.096156 -6.993106 184.023000
16044 1 2 0.0 -41.983795 -11.108172 182.248170
16045 1 1 0.0 -36.267491 -14.057480 182.162776
16046 1 1 0.0 -39.186665 -11.467568 184.086735
16047 1 1 0.0 -36.823561 -6.437229 185.541483
16048 1 1 0.0 -38.651802 -7.707378 184.046637
16049 1 2 0.0 -35.679969 -16.250999 181.688078
16050 1 2 0.0 -38.289500 -8.314804 182.109348
16051 1 2 0.0 -35.983922 -13.202718 183.572187
16052 1 2 0.0 -37.479488 -7.599379 184.508534
16053 1 2 0.0 -39.637218 -5.574206 184.990150
16054 1 2 0.0 -35.548736 -13.567632 180.565075
16055 1 2 0.0 -39.092295 -9.360296 184.589188
16056 1 2 0.0 -37.817494 -13.096376 182.755041
16057 1 1 0.0 -31.855498 -15.328529 182.044670
16058 1 1 0.0 -34.958057 -13.213741 184.207494
16059 1 1 0.0 -32.582582 -8.416597 185.394054
16060 1 1 0.0 -34.420533 -9.667162 184.118396
16061 1 2 0.0 -31.250712 -17.312802 181.539948
16062 1 2 0.0 -33.964543 -10.146382 182.201476
16063 1 2 0.0 -31.596360 -14.536243 183.356894
16064 1 2 0.0 -33.214774 -9.499589 184.448017
16065 1 2 0.0 -35.516821 -7.782141 185.149298
16066 1 2 0.0 -31.061853 -14.770863 180.436640
16067 1 2 0.0 -34.886413 -11.250387 184.681190
16068 1 2 0.0 -33.482781 -14.584750 182.779187
16069 1 1 0.0 -27.282869 -16.095682 181.442518
16070 1 1 0.0 -30.542151 -14.466464 183.845197
16071 1 1 0.0 -28.119895 -9.960689 184.799549
16072 1 1 0.0 -29.992186 -11.181978 183.744752
16073 1 2 0.0 -26.674994 -17.847099 180.890767
16074 1 2 0.0 -29.465876 -11.541985 181.864082
16075 1 2 0.0 -27.025657 -15.362354 182.647880
16076 1 2 0.0 -28.745025 -10.956624 183.940588
16077 1 2 0.0 -31.185309 -9.558240 184.868518
16078 1 2 0.0 -26.429718 -15.491251 179.846731
16079 1 2 0.0 -30.481097 -12.669488 184.305078
16080 1 2 0.0 -28.980210 -15.574942 182.322197
16081 1 1 0.0 -41.454864 -16.059216 185.350254
16082 1 1 0.0 -44.236996 -12.910762 186.961870
16083 1 1 0.0 -42.418698 -7.589699 188.805523
16084 1 1 0.0 -43.946096 -8.920009 187.023615
16085 1 2 0.0 -40.758725 -18.478137 184.895641
16086 1 2 0.0 -43.562463 -9.700055 185.073389
16087 1 2 0.0 -41.311708 -15.112316 186.871523
16088 1 2 0.0 -42.931459 -8.871591 187.660435
16089 1 2 0.0 -44.895656 -6.483512 187.851540
16090 1 2 0.0 -40.786176 -15.671164 183.789535
16091 1 2 0.0 -44.272688 -10.640925 187.517186
16092 1 2 0.0 -42.907419 -14.847291 185.761082
16093 1 1 0.0 -37.414517 -17.824193 185.766158
16094 1 1 0.0 -40.430613 -15.184237 187.670951
16095 1 1 0.0 -38.584502 -9.960467 189.146266
16096 1 1 0.0 -40.125933 -11.343366 187.635669
16097 1 2 0.0 -36.693150 -20.056817 185.292374
16098 1 2 0.0 -39.619734 -12.002756 185.695560
16099 1 2 0.0 -37.311600 -16.911948 187.177873
16100 1 2 0.0 -39.070003 -11.198487 188.109307
16101 1 2 0.0 -41.209685 -9.156219 188.567463
16102 1 2 0.0 -36.643420 -17.350486 184.169088
16103 1 2 0.0 -40.492315 -13.023828 188.176372
16104 1 2 0.0 -38.964206 -16.854058 186.349247
16105 1 1 0.0 -33.190630 -19.013428 185.629001
16106 1 1 0.0 -36.403563 -16.876347 187.810913
16107 1 1 0.0 -34.495391 -11.830764 188.972971
16108 1 1 0.0 -36.072190 -13.239338 187.719825
16109 1 2 0.0 -32.461542 -21.037498 185.121098
16110 1 2 0.0 -35.469311 -13.784184 185.804174
16111 1 2 0.0 -33.105221 -18.140084 186.928151
16112 1 2 0.0 -34.970022 -13.009819 188.038270
16113 1 2 0.0 -37.269842 -11.309634 188.754361
16114 1 2 0.0 -32.333920 -18.475518 184.018884
16115 1 2 0.0 -36.476737 -14.851267 188.283485
16116 1 2 0.0 -34.825570 -18.280831 186.377264
16117 1 1 0.0 -28.780196 -19.617489 184.929722
16118 1 1 0.0 -32.159431 -17.996540 187.391004
16119 1 1 0.0 -30.145672 -13.189416 188.274159
16120 1 1 0.0 -31.787324 -14.613470 187.281632
16121 1 2 0.0 -28.060587 -21.408249 184.370483
16122 1 2 0.0 -31.114094 -15.051618 185.406404
16123 1 2 0.0 -28.686411 -18.779659 186.105750
16124 1 2 0.0 -30.629367 -14.300943 187.442640
16125 1 2 0.0 -33.082074 -12.955916 188.424623
16126 1 2 0.0 -27.854548 -19.035868 183.328990
16127 1 2 0.0 -32.228968 -16.130355 187.845596
16128 1 2 0.0 -30.492155 -19.129522 185.846982
16129 1 1 0.0 -18.981553 36.973362 146.153819
16130 1 1 0.0 -19.312933 38.642411 148.528341
16131 1 1 0.0 -11.083361 40.768933 149.501081
16132 1 1 0.0 -15.563933 40.899203 148.434834
16133 1 2 0.0 -20.528767 35.473844 145.633311
16134 1 2 0.0 -16.844730 40.976111 146.576879
16135 1 2 0.0 -16.840767 37.090245 147.443235
16136 1 2 0.0 -13.561690 40.611924 148.611047
16137 1 2 0.0 -14.704819 42.028671 149.624888
16138 1 2 0.0 -18.808139 37.579159 144.549020
16139 1 2 0.0 -17.119804 39.826809 148.989319
16140 1 2 0.0 -19.754734 37.709993 146.989777
16141 1 1 0.0 -14.765821 34.953186 145.818746
16142 1 1 0.0 -15.068249 36.590431 147.972686
16143 1 1 0.0 -7.329368 38.137857 149.180644
16144 1 1 0.0 -11.504635 38.676365 147.874806
16145 1 2 0.0 -16.228088 33.565062 145.333078
16146 1 2 0.0 -12.707799 38.970541 145.971363
16147 1 2 0.0 -12.750548 34.822151 147.200498
16148 1 2 0.0 -9.640353 38.200901 148.195816
16149 1 2 0.0 -10.668165 39.750902 148.958945
16150 1 2 0.0 -14.605541 35.654418 144.213470
16151 1 2 0.0 -12.987220 37.630527 148.439532
16152 1 2 0.0 -15.492279 35.742958 146.521129
16153 1 1 0.0 -10.794214 32.511796 145.929247
16154 1 1 0.0 -11.090378 34.130703 147.863008
16155 1 1 0.0 -3.910670 35.098671 149.343612
16156 1 1 0.0 -7.757800 36.028198 147.797805
16157 1 2 0.0 -12.147403 31.241327 145.462693
16158 1 2 0.0 -8.877335 36.512965 145.865656
16159 1 2 0.0 -8.917290 32.146954 147.398365
16160 1 2 0.0 -6.037031 35.371536 148.261529
16161 1 2 0.0 -6.965976 37.052152 148.785094
16162 1 2 0.0 -10.652252 33.282795 144.346260
16163 1 2 0.0 -9.145810 35.023967 148.350195
16164 1 2 0.0 -11.481241 33.358064 146.498804
16165 1 1 0.0 -7.070732 29.642289 146.492621
16166 1 1 0.0 -7.374983 31.269853 148.192060
16167 1 1 0.0 -0.834753 31.642263 150.000779
16168 1 1 0.0 -4.320141 32.959173 148.198749
16169 1 2 0.0 -8.291101 28.494359 146.030732
16170 1 2 0.0 -5.349059 33.609696 146.252778
16171 1 2 0.0 -5.348666 29.052498 148.049994
16172 1 2 0.0 -2.754589 32.120061 148.812520
16173 1 2 0.0 -3.590422 33.942278 149.091813
16174 1 2 0.0 -6.952947 30.455911 144.956172
16175 1 2 0.0 -5.591847 32.012384 148.715412
16176 1 2 0.0 -7.720792 30.556688 146.921332
16177 1 1 0.0 -21.089705 33.717530 149.699434
16178 1 1 0.0 -21.618760 35.598146 152.015270
16179 1 1 0.0 -13.701301 37.894197 153.055004
16180 1 1 0.0 -18.051186 37.982735 151.933706
16181 1 2 0.0 -22.500726 32.128230 149.183994
16182 1 2 0.0 -19.233239 37.986091 150.068653
16183 1 2 0.0 -19.053269 33.882511 151.006684
16184 1 2 0.0 -16.081319 37.676513 152.145350
16185 1 2 0.0 -17.310486 39.255072 153.095903
16186 1 2 0.0 -20.870634 34.289426 148.098025
16187 1 2 0.0 -19.546403 36.867361 152.483505
16188 1 2 0.0 -21.935219 34.542434 150.502689
16189 1 1 0.0 -16.773292 31.566048 149.422128
16190 1 1 0.0 -17.306798 33.375109 151.556903
16191 1 1 0.0 -9.851008 35.112082 152.785427
16192 1 1 0.0 -13.915513 35.581552 151.463838
16193 1 2 0.0 -18.098278 30.099192 148.937374
16194 1 2 0.0 -15.009964 35.797312 149.557574
16195 1 2 0.0 -14.859866 31.494713 150.806185
16196 1 2 0.0 -12.069878 35.105766 151.796588
16197 1 2 0.0 -13.213736 36.781220 152.536258
16198 1 2 0.0 -16.554768 32.232671 147.817483
16199 1 2 0.0 -15.344808 34.497500 152.026716
16200 1 2 0.0 -17.588525 32.421053 150.115334
16201 1 1 0.0 -12.658915 29.065970 149.513578
16202 1 1 0.0 -13.214934 30.815715 151.466428
16203 1 1 0.0 -6.282792 31.986632 152.922528
16204 1 1 0.0 -10.042000 32.823515 151.399233
16205 1 2 0.0 -13.876540 27.729298 149.043843
16206 1 2 0.0 -11.045359 33.227023 149.468353
16207 1 2 0.0 -10.878710 28.770650 150.969622
16208 1 2 0.0 -8.325545 32.183645 151.851782
16209 1 2 0.0 -9.398066 33.953585 152.390157
16210 1 2 0.0 -12.447341 29.802293 147.928504
16211 1 2 0.0 -11.385134 31.786761 151.952491
16212 1 2 0.0 -13.449638 29.954296 150.096882
16213 1 1 0.0 -8.749886 26.211585 149.979825
16214 1 1 0.0 -9.339590 27.925428 151.737867
16215 1 1 0.0 -3.002951 28.510183 153.475390
16216 1 1 0.0 -6.427888 29.712376 151.735629
16217 1 2 0.0 -9.839118 25.011750 149.510447
16218 1 2 0.0 -7.335813 30.280552 149.795100
16219 1 2 0.0 -7.116142 25.700282 151.507864
16220 1 2 0.0 -4.850726 28.906984 152.314572
16221 1 2 0.0 -5.856892 30.780449 152.647918
16222 1 2 0.0 -8.552261 26.991286 148.438431
16223 1 2 0.0 -7.664284 28.739510 152.255930
16224 1 2 0.0 -9.517870 27.143302 150.446117
16225 1 1 0.0 -23.162855 30.441411 153.245048
16226 1 1 0.0 -23.877559 32.523108 155.502199
16227 1 1 0.0 -16.288844 34.994487 156.608926
16228 1 1 0.0 -20.493481 35.033240 155.432577
16229 1 2 0.0 -24.439034 28.764775 152.734677
16230 1 2 0.0 -21.573147 34.963120 153.560427
16231 1 2 0.0 -21.237169 30.656723 154.570133
16232 1 2 0.0 -18.564421 34.713335 155.679653
16233 1 2 0.0 -19.866958 36.442388 156.566919
16234 1 2 0.0 -22.897872 30.980024 151.647030
16235 1 2 0.0 -21.927797 33.875831 155.977691
16236 1 2 0.0 -24.072865 31.349100 154.015601
16237 1 1 0.0 -18.773740 28.174840 153.025510
16238 1 1 0.0 -19.525177 30.146588 155.141119
16239 1 1 0.0 -12.368408 32.082823 156.390209
16240 1 1 0.0 -16.308483 32.473583 155.052870
16241 1 2 0.0 -19.962917 26.630378 152.541670
16242 1 2 0.0 -17.291858 32.610340 153.143786
16243 1 2 0.0 -16.967805 28.166404 154.411871
16244 1 2 0.0 -14.489686 32.003244 155.397361
16245 1 2 0.0 -15.736528 33.793440 156.113571
16246 1 2 0.0 -18.497744 28.807436 151.421496
16247 1 2 0.0 -17.683820 31.351290 155.613900
16248 1 2 0.0 -19.669559 29.089995 153.709540
16249 1 1 0.0 -14.544574 25.632291 153.097909
16250 1 1 0.0 -15.346178 27.505102 155.069848
16251 1 1 0.0 -8.676831 28.892600 156.501445
16252 1 1 0.0 -12.335339 29.625547 155.000662
16253 1 2 0.0 -15.628225 24.229224 152.624994
16254 1 2 0.0 -13.221442 29.946545 153.071051
16255 1 2 0.0 -12.865976 25.410660 154.540879
16256 1 2 0.0 -10.631152 29.008748 155.442036
16257 1 2 0.0 -11.833788 30.857904 155.995220
16258 1 2 0.0 -14.265184 26.334485 151.510748
16259 1 2 0.0 -13.632511 28.555271 155.554786
16260 1 2 0.0 -15.430448 26.557998 153.694960
16261 1 1 0.0 -10.477978 22.809244 153.467029
16262 1 1 0.0 -11.337743 24.602955 155.283675
16263 1 1 0.0 -5.219223 25.417599 156.950000
16264 1 1 0.0 -8.571823 26.492164 155.272509
16265 1 2 0.0 -11.437781 21.555991 152.990163
16266 1 2 0.0 -9.358954 26.976080 153.337421
16267 1 2 0.0 -8.936686 22.381562 154.965734
16268 1 2 0.0 -6.990767 25.727282 155.816623
16269 1 2 0.0 -8.153409 27.642492 156.204022
16270 1 2 0.0 -10.203335 23.555537 151.920690
16271 1 2 0.0 -9.771404 25.491250 155.796449
16272 1 2 0.0 -11.354990 23.754008 153.970901
16273 1 1 0.0 -25.203524 27.146466 156.790662
16274 1 1 0.0 -26.092635 29.419460 158.989129
16275 1 1 0.0 -18.848488 32.071856 160.162849
16276 1 1 0.0 -22.894429 32.053369 158.931449
16277 1 2 0.0 -26.345985 25.384696 156.285360
16278 1 2 0.0 -23.868564 31.909982 157.052201
16279 1 2 0.0 -23.394497 27.414163 158.133582
16280 1 2 0.0 -21.013955 31.724639 159.213956
16281 1 2 0.0 -22.378242 33.593801 160.037935
16282 1 2 0.0 -24.892604 27.652487 155.196035
16283 1 2 0.0 -24.267342 30.854600 159.471877
16284 1 2 0.0 -26.170727 28.131829 157.528513
16285 1 1 0.0 -20.767671 24.779854 156.628892
16286 1 1 0.0 -21.724803 26.905796 158.725336
16287 1 1 0.0 -14.881917 29.050367 159.994992
16288 1 1 0.0 -18.684982 29.353514 158.641902
16289 1 2 0.0 -21.822383 23.158822 156.145966
16290 1 2 0.0 -19.555196 29.410785 156.729997
16291 1 2 0.0 -19.074463 24.837288 158.017558
16292 1 2 0.0 -16.900565 28.893935 158.998133
16293 1 2 0.0 -18.238393 30.789034 159.690884
16294 1 2 0.0 -20.434956 25.378986 155.025509
16295 1 2 0.0 -20.005635 28.192876 159.201084
16296 1 2 0.0 -21.736466 25.750437 157.303745
16297 1 1 0.0 -16.449679 22.209884 156.682240
16298 1 1 0.0 -17.483639 24.198558 158.673267
16299 1 1 0.0 -11.090987 25.815095 160.080361
16300 1 1 0.0 -14.637085 26.433755 158.602090
16301 1 2 0.0 -17.400922 20.740289 156.206144
16302 1 2 0.0 -15.404903 26.671070 156.673749
16303 1 2 0.0 -14.877251 22.065824 158.112135
16304 1 2 0.0 -12.952468 25.845791 159.032289
16305 1 2 0.0 -14.272849 27.764875 159.600283
16306 1 2 0.0 -16.104005 22.878380 155.092993
16307 1 2 0.0 -15.887344 25.329072 159.157082
16308 1 2 0.0 -17.422787 23.168636 157.293038
16309 1 1 0.0 -12.251481 19.433222 156.954233
16310 1 1 0.0 -13.367084 21.300889 158.829482
16311 1 1 0.0 -7.479618 22.361266 160.424610
16312 1 1 0.0 -10.749040 23.296402 158.809388
16313 1 2 0.0 -13.083640 18.125255 156.469878
16314 1 2 0.0 -11.415409 23.694195 156.879742
16315 1 2 0.0 -10.806531 19.093961 158.423603
16316 1 2 0.0 -9.171153 22.578249 159.318675
16317 1 2 0.0 -10.477527 24.526463 159.760127
16318 1 2 0.0 -11.902130 20.146411 155.402949
16319 1 2 0.0 -11.910632 22.265777 159.336967
16320 1 2 0.0 -13.229293 20.387086 157.495686
16321 1 1 0.0 -27.213447 23.833703 160.336277
16322 1 1 0.0 -28.266256 26.288686 162.476058
16323 1 1 0.0 -21.381977 29.127737 163.716772
16324 1 1 0.0 -25.256546 29.044972 162.430321
16325 1 2 0.0 -28.223144 21.988822 159.836044
16326 1 2 0.0 -26.122361 28.828626 160.543975
16327 1 2 0.0 -25.526648 24.155711 161.697031
16328 1 2 0.0 -23.431987 28.711995 162.748259
16329 1 2 0.0 -24.847130 30.711533 163.508950
16330 1 2 0.0 -26.856742 24.307882 158.745040
16331 1 2 0.0 -26.567357 27.805315 162.966064
16332 1 2 0.0 -28.230907 24.891886 161.041425
16333 1 1 0.0 -22.755433 21.381294 160.232274
16334 1 1 0.0 -23.906650 23.653371 162.309553
16335 1 1 0.0 -17.391778 26.014914 163.599774
16336 1 1 0.0 -21.046012 26.222082 162.230934
16337 1 2 0.0 -23.676934 19.684659 159.750262
16338 1 2 0.0 -21.801174 26.199461 160.316208
16339 1 2 0.0 -21.179907 21.507405 161.623245
16340 1 2 0.0 -19.303063 25.778254 162.598906
16341 1 2 0.0 -20.720627 27.769031 163.268197
16342 1 2 0.0 -22.366743 21.947510 158.629522
16343 1 2 0.0 -22.311207 25.022933 162.788268
16344 1 2 0.0 -23.789991 22.402828 160.897950
16345 1 1 0.0 -18.373193 18.798145 160.266572
16346 1 1 0.0 -19.626996 20.895871 162.276687
16347 1 1 0.0 -13.524001 22.753084 163.659277
16348 1 1 0.0 -16.946725 23.247762 162.203519
16349 1 2 0.0 -19.193581 17.261937 159.787295
16350 1 2 0.0 -17.595266 23.400274 160.276446
16351 1 2 0.0 -16.911276 18.735348 161.683392
16352 1 2 0.0 -15.288524 22.694041 162.622542
16353 1 2 0.0 -16.715041 24.674334 163.205346
16354 1 2 0.0 -17.962572 19.433292 158.675237
16355 1 2 0.0 -18.149219 22.107871 162.759377
16356 1 2 0.0 -19.426046 19.785844 160.891116
16357 1 1 0.0 -14.067969 16.082113 160.441437
16358 1 1 0.0 -15.425994 18.018173 162.375289
16359 1 1 0.0 -9.781378 19.338918 163.899220
16360 1 1 0.0 -12.957514 20.123603 162.346268
16361 1 2 0.0 -14.774338 14.718290 159.949594
16362 1 2 0.0 -13.503026 20.433438 160.422064
16363 1 2 0.0 -12.723089 15.835845 161.881473
16364 1 2 0.0 -11.389403 19.458000 162.820727
16365 1 2 0.0 -12.827540 21.431008 163.316232
16366 1 2 0.0 -13.645839 16.762342 158.885209
16367 1 2 0.0 -14.080189 19.061829 162.877485
16368 1 2 0.0 -15.138817 17.041356 161.020471
16369 1 1 0.0 -29.193745 20.503769 163.881891
16370 1 1 0.0 -30.399874 23.131735 165.962987
16371 1 1 0.0 -23.890482 26.163091 167.270694
16372 1 1 0.0 -27.581513 26.009282 165.929193
16373 1 2 0.0 -30.071498 18.577677 163.386727
16374 1 2 0.0 -28.336482 25.720368 164.035749
16375 1 2 0.0 -27.634517 20.881933 165.260481
16376 1 2 0.0 -25.819899 25.676455 166.282562
16377 1 2 0.0 -27.275496 27.797070 166.979966
16378 1 2 0.0 -28.791553 20.946916 162.294045
16379 1 2 0.0 -28.829355 24.729050 166.460250
16380 1 2 0.0 -30.254757 21.630082 164.554337
16381 1 1 0.0 -24.737252 17.979288 163.835655
16382 1 1 0.0 -26.071339 20.389717 165.893770
16383 1 1 0.0 -19.898154 22.976598 167.204557
16384 1 1 0.0 -23.392244 23.079777 165.819966
16385 1 2 0.0 -25.526733 16.207978 163.354558
16386 1 2 0.0 -24.030604 22.976917 163.902420
16387 1 2 0.0 -23.284181 18.176783 165.228931
16388 1 2 0.0 -21.697548 22.656483 166.199678
16389 1 2 0.0 -23.184096 24.734119 166.845510
16390 1 2 0.0 -24.293330 18.513133 162.233535
16391 1 2 0.0 -24.601156 21.841904 166.375452
16392 1 2 0.0 -25.830615 19.047456 164.492156
16393 1 1 0.0 -20.314445 15.396686 163.850903
16394 1 1 0.0 -21.776041 17.596907 165.880107
16395 1 1 0.0 -15.975029 19.705873 167.238193
16396 1 1 0.0 -19.263918 20.067317 165.804948
16397 1 2 0.0 -21.005539 13.793818 163.368446
16398 1 2 0.0 -19.792207 20.133939 163.879144
16399 1 2 0.0 -18.967242 15.418720 165.254649
16400 1 2 0.0 -17.638676 19.553005 166.212795
16401 1 2 0.0 -19.160225 21.586171 166.810409
16402 1 2 0.0 -19.840066 15.998762 162.257481
16403 1 2 0.0 -20.417867 18.891477 166.361673
16404 1 2 0.0 -21.439833 16.409387 164.489194
16405 1 1 0.0 -15.925876 12.755009 163.928641
16406 1 1 0.0 -17.513440 14.754129 165.921097
16407 1 1 0.0 -12.122653 16.349034 167.373830
16408 1 1 0.0 -15.195893 16.972773 165.883147
16409 1 2 0.0 -16.508388 11.334310 163.429310
16410 1 2 0.0 -15.620349 17.192823 163.964385
16411 1 2 0.0 -14.684698 12.606166 165.339343
16412 1 2 0.0 -13.643855 16.365271 166.322778
16413 1 2 0.0 -15.202303 18.355216 166.872337
16414 1 2 0.0 -15.432603 13.402293 162.367468
16415 1 2 0.0 -16.278913 15.878581 166.418003
16416 1 2 0.0 -17.082299 13.716058 164.545256
16417 1 1 0.0 -31.145021 17.157015 167.427505
16418 1 1 0.0 -32.494245 19.949103 169.449916
16419 1 1 0.0 -26.374711 23.178500 170.824617
16420 1 1 0.0 -29.870328 22.947035 169.428065
16421 1 2 0.0 -31.891545 15.151524 166.937410
16422 1 2 0.0 -30.512121 22.586019 167.527523
16423 1 2 0.0 -29.718579 17.593128 168.823930
16424 1 2 0.0 -28.178517 22.618646 169.816866
16425 1 2 0.0 -29.664465 24.851306 170.450982
16426 1 2 0.0 -30.697773 17.570000 165.843051
16427 1 2 0.0 -31.054178 21.626401 169.954436
16428 1 2 0.0 -32.242994 18.346853 168.067249
16429 1 1 0.0 -26.713247 14.573908 167.439037
16430 1 1 0.0 -28.219196 17.115050 169.477986
16431 1 1 0.0 -22.401143 19.935500 170.809339
16432 1 1 0.0 -25.724075 19.926894 169.408998
16433 1 2 0.0 -27.371862 12.728821 166.958854
16434 1 2 0.0 -26.243984 19.743490 167.488631
16435 1 2 0.0 -25.387307 14.845437 168.834618
16436 1 2 0.0 -24.084241 19.528787 169.800451
16437 1 2 0.0 -25.629321 21.684713 170.422823
16438 1 2 0.0 -26.214848 15.075927 165.837548
16439 1 2 0.0 -26.875830 18.650032 169.962636
16440 1 2 0.0 -27.858593 15.684476 168.086361
16441 1 1 0.0 -22.273072 12.005298 167.435234
16442 1 1 0.0 -23.930668 14.301595 169.483527
16443 1 1 0.0 -18.443561 16.673043 170.817109
16444 1 1 0.0 -21.588460 16.892272 169.406376
16445 1 2 0.0 -22.836466 10.335755 166.949596
16446 1 2 0.0 -21.995530 16.871930 167.481842
16447 1 2 0.0 -21.044720 12.115671 168.825906
16448 1 2 0.0 -20.002536 16.422390 169.803049
16449 1 2 0.0 -21.608320 18.500320 170.415472
16450 1 2 0.0 -21.736012 12.574526 165.839726
16451 1 2 0.0 -22.693139 15.679783 169.963968
16452 1 2 0.0 -23.463939 13.039139 168.087271
16453 1 1 0.0 -17.824358 9.451422 167.415845
16454 1 1 0.0 -19.628881 11.508403 169.466904
16455 1 1 0.0 -14.502321 13.390694 170.848440
16456 1 1 0.0 -17.463372 13.843321 169.420027
16457 1 2 0.0 -18.285044 7.972917 166.909025
16458 1 2 0.0 -17.766486 13.971744 167.506706
16459 1 2 0.0 -16.690480 9.404367 168.797213
16460 1 2 0.0 -15.933516 13.299307 169.824830
16461 1 2 0.0 -17.601129 15.298543 170.428441
16462 1 2 0.0 -17.261340 10.065660 165.849727
16463 1 2 0.0 -18.506160 12.715575 169.958521
16464 1 2 0.0 -19.059066 10.410787 168.070040
16465 1 1 0.0 -33.067412 13.793519 170.973120
16466 1 1 0.0 -34.549501 16.740876 172.936846
16467 1 1 0.0 -28.834967 20.174213 174.378539
16468 1 1 0.0 -32.123394 19.858525 172.926936
16469 1 2 0.0 -33.683327 11.710386 170.488093
16470 1 2 0.0 -32.649828 19.425951 171.019297
16471 1 2 0.0 -31.778925 14.289353 172.387379
16472 1 2 0.0 -30.508184 19.538830 173.351169
16473 1 2 0.0 -32.014509 21.874616 173.921997
16474 1 2 0.0 -32.575670 14.177283 169.392056
16475 1 2 0.0 -33.242064 18.497538 173.448622
16476 1 2 0.0 -34.195769 15.042285 171.580161
16477 1 1 0.0 -28.683448 11.165169 171.042419
16478 1 1 0.0 -30.350276 13.829405 173.062203
16479 1 1 0.0 -24.900789 16.891654 174.414122
16480 1 1 0.0 -28.041665 16.763548 172.998030
16481 1 2 0.0 -29.212328 9.247191 170.563150
16482 1 2 0.0 -28.441542 16.499337 171.074843
16483 1 2 0.0 -27.489289 11.513369 172.440305
16484 1 2 0.0 -26.463231 16.395237 173.401224
16485 1 2 0.0 -28.056521 18.620986 174.000136
16486 1 2 0.0 -28.131344 11.635920 169.441561
16487 1 2 0.0 -29.135325 15.447389 173.549820
16488 1 2 0.0 -29.873978 12.313918 171.680566
16489 1 1 0.0 -24.248994 8.623934 171.019565
16490 1 1 0.0 -26.090857 11.009923 173.086946
16491 1 1 0.0 -20.929378 13.654413 174.396025
16492 1 1 0.0 -23.920271 13.722565 173.007805
16493 1 2 0.0 -24.686331 6.887732 170.530747
16494 1 2 0.0 -24.205143 13.614186 171.084540
16495 1 2 0.0 -23.143626 8.826148 172.397162
16496 1 2 0.0 -22.379943 13.302074 173.393302
16497 1 2 0.0 -24.059289 15.416753 174.020535
16498 1 2 0.0 -23.650236 9.160488 169.421970
16499 1 2 0.0 -24.974990 12.472760 173.566264
16500 1 2 0.0 -25.498323 9.675074 171.685349
16501 1 1 0.0 -19.763224 6.171240 170.903049
16502 1 1 0.0 -21.772223 8.280935 173.012712
16503 1 1 0.0 -16.919904 10.463503 174.323050
16504 1 1 0.0 -19.759627 10.735009 172.956906
16505 1 2 0.0 -20.104240 4.634078 170.388741
16506 1 2 0.0 -19.941024 10.769921 171.049028
16507 1 2 0.0 -18.740263 6.230342 172.255083
16508 1 2 0.0 -18.257973 10.259795 173.326882
16509 1 2 0.0 -20.023731 12.260758 173.984546
16510 1 2 0.0 -19.131657 6.752223 169.331986
16511 1 2 0.0 -20.761746 9.572682 173.499039
16512 1 2 0.0 -21.068980 7.125460 171.594825
16513 1 1 0.0 -34.960597 10.413098 174.518734
16514 1 1 0.0 -36.565153 13.506734 176.423775
16515 1 1 0.0 -31.271175 17.150169 177.932462
16516 1 1 0.0 -34.340548 16.743633 176.425808
16517 1 2 0.0 -35.446443 8.254051 174.038777
16518 1 2 0.0 -34.749549 16.240128 174.511071
16519 1 2 0.0 -33.815273 10.970431 175.950828
16520 1 2 0.0 -32.808785 16.436918 176.885472
16521 1 2 0.0 -34.325482 18.866885 177.393013
16522 1 2 0.0 -34.425067 10.768665 172.941061
16523 1 2 0.0 -35.392671 15.342218 176.942808
16524 1 2 0.0 -36.112667 11.716131 175.093073
16525 1 1 0.0 -30.647788 7.753034 174.645801
16526 1 1 0.0 -32.464370 10.532645 176.646420
16527 1 1 0.0 -27.397080 13.845053 178.018905
16528 1 1 0.0 -30.344950 13.589693 176.587062
16529 1 2 0.0 -31.048064 5.763055 174.167446
16530 1 2 0.0 -30.623257 13.244441 174.661054
16531 1 2 0.0 -29.590115 8.180571 176.045992
16532 1 2 0.0 -28.834490 13.255809 177.001996
16533 1 2 0.0 -30.465629 15.542885 177.577449
16534 1 2 0.0 -30.042787 8.193094 173.045574
16535 1 2 0.0 -31.379502 12.233875 177.137004
16536 1 2 0.0 -31.876623 8.935694 175.274772
16537 1 1 0.0 -26.242402 5.252704 174.603897
16538 1 1 0.0 -28.256678 7.721936 176.690366
16539 1 1 0.0 -23.432535 10.650030 177.974941
16540 1 1 0.0 -26.259382 10.558223 176.609233
16541 1 2 0.0 -26.555405 3.449893 174.111897
16542 1 2 0.0 -26.421055 10.360713 174.687237
16543 1 2 0.0 -25.264218 5.550312 175.968419
16544 1 2 0.0 -24.770952 10.192097 176.983555
16545 1 2 0.0 -26.513144 12.335478 177.625598
16546 1 2 0.0 -25.582855 5.756712 173.004214
16547 1 2 0.0 -27.263484 9.270450 177.168559
16548 1 2 0.0 -27.543102 6.317265 175.283427
16549 1 1 0.0 -21.742921 2.914723 174.390253
16550 1 1 0.0 -23.943815 5.071952 176.558519
16551 1 1 0.0 -19.375519 7.567559 177.797661
16552 1 1 0.0 -22.084789 7.647933 176.493786
16553 1 2 0.0 -21.966582 1.318114 173.868456
16554 1 2 0.0 -22.144003 7.587382 174.591349
16555 1 2 0.0 -20.834572 3.084421 175.712952
16556 1 2 0.0 -20.617367 7.246840 176.828933
16557 1 2 0.0 -22.470197 9.241934 177.540651
16558 1 2 0.0 -21.043815 3.462130 172.814246
16559 1 2 0.0 -23.045934 6.450087 177.039557
16560 1 2 0.0 -23.112426 3.860308 175.119610
16561 1 1 0.0 -36.823777 7.015285 178.064348
16562 1 1 0.0 -38.540055 10.245926 179.910704
16563 1 1 0.0 -33.682874 14.105990 181.486384
16564 1 1 0.0 -36.521052 13.601815 179.924680
16565 1 2 0.0 -37.180006 4.782047 177.589460
16566 1 2 0.0 -36.810626 13.028105 178.002845
16567 1 2 0.0 -35.826943 7.635933 179.514277
16568 1 2 0.0 -35.079738 13.312468 180.419775
16569 1 2 0.0 -36.596615 15.827501 180.864029
16570 1 2 0.0 -36.245323 7.343791 176.490066
16571 1 2 0.0 -37.505047 12.159765 180.436994
16572 1 2 0.0 -37.992683 8.367786 178.605985
16573 1 1 0.0 -32.606108 4.337410 178.249182
16574 1 1 0.0 -34.560986 7.224448 180.230636
16575 1 1 0.0 -29.889953 10.795643 181.623687
16576 1 1 0.0 -32.633635 10.405113 180.176093
16577 1 2 0.0 -32.878926 2.276333 177.771742
16578 1 2 0.0 -32.788855 9.978617 178.247266
16579 1 2 0.0 -31.689752 4.847022 179.651678
16580 1 2 0.0 -31.197861 10.110385 180.602769
16581 1 2 0.0 -32.856288 12.450127 181.154762
16582 1 2 0.0 -31.949063 4.747385 176.649587
16583 1 2 0.0 -33.607968 9.009210 180.724188
16584 1 2 0.0 -33.866170 5.549591 178.868977
16585 1 1 0.0 -28.253775 1.891886 178.188228
16586 1 1 0.0 -30.428294 4.437741 180.293786
16587 1 1 0.0 -25.953362 7.660165 181.553858
16588 1 1 0.0 -28.605944 7.399354 180.210662
16589 1 2 0.0 -28.444279 0.022552 177.693048
16590 1 2 0.0 -28.643375 7.111585 178.289935
16591 1 2 0.0 -27.407108 2.288551 179.539676
16592 1 2 0.0 -27.175834 7.092667 180.573809
16593 1 2 0.0 -28.969942 9.256541 181.230661
16594 1 2 0.0 -27.534280 2.363427 176.586459
16595 1 2 0.0 -29.558788 6.072974 180.770855
16596 1 2 0.0 -29.598569 2.965886 178.881505
16597 1 1 0.0 -23.764570 -0.317480 177.877457
16598 1 1 0.0 -26.144475 1.881990 180.104326
16599 1 1 0.0 -21.869895 4.703460 181.272271
16600 1 1 0.0 -24.439454 4.582531 180.030665
16601 1 2 0.0 -23.873402 -1.974271 177.348172
16602 1 2 0.0 -24.375916 4.424460 178.133670
16603 1 2 0.0 -22.974668 -0.032598 179.170822
16604 1 2 0.0 -23.012394 4.260974 180.330985
16605 1 2 0.0 -24.940996 6.242442 181.096756
16606 1 2 0.0 -22.998753 0.195902 176.296505
16607 1 2 0.0 -25.359454 3.348310 180.580075
16608 1 2 0.0 -25.190346 0.615898 178.644395
16609 1 1 0.0 -38.655600 3.599299 181.609963
16610 1 1 0.0 -40.472304 6.957209 183.397634
16611 1 1 0.0 -36.069183 11.040950 185.040307
16612 1 1 0.0 -38.663526 10.432060 183.423552
16613 1 2 0.0 -38.882578 1.293613 181.140143
16614 1 2 0.0 -38.831744 9.788987 181.494619
16615 1 2 0.0 -37.812799 4.285140 183.077727
16616 1 2 0.0 -37.319947 10.164647 183.954078
16617 1 2 0.0 -38.826447 12.755305 184.335045
16618 1 2 0.0 -38.035285 3.902016 180.039071
16619 1 2 0.0 -39.577547 8.949012 183.931180
16620 1 2 0.0 -39.834132 4.996237 182.118898
16621 1 1 0.0 -34.558137 0.918139 181.852564
16622 1 1 0.0 -36.639310 3.904281 183.814853
16623 1 1 0.0 -32.379284 7.743323 185.228470
16624 1 1 0.0 -34.907171 7.209403 183.765125
16625 1 2 0.0 -34.704674 -1.213099 181.376038
16626 1 2 0.0 -34.937785 6.701493 181.833477
16627 1 2 0.0 -33.788144 1.512688 183.257365
16628 1 2 0.0 -33.553054 6.958744 184.203541
16629 1 2 0.0 -35.227822 9.342173 184.732075
16630 1 2 0.0 -33.849967 1.298679 180.253600
16631 1 2 0.0 -35.820049 5.772917 184.311372
16632 1 2 0.0 -35.842022 2.155247 182.463182
16633 1 1 0.0 -30.283922 -1.458051 181.772559
16634 1 1 0.0 -32.605976 1.157515 183.897206
16635 1 1 0.0 -28.492498 4.685341 185.132774
16636 1 1 0.0 -30.960237 4.246165 183.812090
16637 1 2 0.0 -30.353920 -3.393780 181.274198
16638 1 2 0.0 -30.872322 3.866950 181.892633
16639 1 2 0.0 -29.573323 -0.958487 183.110932
16640 1 2 0.0 -29.595104 4.004173 184.164062
16641 1 2 0.0 -31.429790 6.180028 184.835724
16642 1 2 0.0 -29.505256 -1.018950 180.168703
16643 1 2 0.0 -31.861197 2.880539 184.373151
16644 1 2 0.0 -31.665213 -0.378769 182.479583
16645 1 1 0.0 -25.830058 -3.524274 181.364661
16646 1 1 0.0 -28.375559 -1.288064 183.650134
16647 1 1 0.0 -24.404428 1.872354 184.746881
16648 1 1 0.0 -26.824729 1.539616 183.567545
16649 1 2 0.0 -25.826867 -5.241925 180.827887
16650 1 2 0.0 -26.637749 1.281825 181.675992
16651 1 2 0.0 -25.162658 -3.119388 182.628692
16652 1 2 0.0 -25.444375 1.303198 183.833037
16653 1 2 0.0 -27.437021 3.262992 184.652860
16654 1 2 0.0 -24.998165 -3.045514 179.778764
16655 1 2 0.0 -27.703568 0.268245 184.120594
16656 1 2 0.0 -27.304312 -2.606823 182.169179
16657 1 1 0.0 -40.454041 0.163966 185.155577
16658 1 1 0.0 -42.359070 3.638729 186.884563
16659 1 1 0.0 -38.428717 7.953912 188.594229
16660 1 1 0.0 -40.765833 7.232797 186.922423
16661 1 2 0.0 -40.552026 -2.212382 184.690826
16662 1 2 0.0 -40.810809 6.521358 184.986393
16663 1 2 0.0 -39.771147 0.916985 186.641176
16664 1 2 0.0 -39.527705 6.992157 187.488381
16665 1 2 0.0 -41.012699 9.648484 187.806060
16666 1 2 0.0 -39.793184 0.442354 183.588076
16667 1 2 0.0 -41.607690 5.708199 187.425366
16668 1 2 0.0 -41.634497 1.599968 185.631810
16669 1 1 0.0 -36.503469 -2.505013 185.455946
16670 1 1 0.0 -38.698125 0.571348 187.399070
16671 1 1 0.0 -34.864880 4.687934 188.833252
16672 1 1 0.0 -37.164706 4.001939 187.354157
16673 1 2 0.0 -36.524959 -4.705428 184.980334
16674 1 2 0.0 -37.069176 3.412477 185.419688
16675 1 2 0.0 -35.885209 -1.822484 186.863052
16676 1 2 0.0 -35.899614 3.800541 187.804314
16677 1 2 0.0 -37.579175 6.218187 188.309389
16678 1 2 0.0 -35.745186 -2.153198 183.857613
16679 1 2 0.0 -38.014724 2.524271 187.898556
16680 1 2 0.0 -37.803285 -1.247875 186.057388
16681 1 1 0.0 -32.334056 -4.796404 185.356890
16682 1 1 0.0 -34.790126 -2.118479 187.500626
16683 1 1 0.0 -31.050939 1.726377 188.711690
16684 1 1 0.0 -33.322697 1.098975 187.413519
16685 1 2 0.0 -32.285756 -6.798344 184.855349
16686 1 2 0.0 -33.108242 0.627042 185.495330
16687 1 2 0.0 -31.764394 -4.189836 186.682189
16688 1 2 0.0 -32.029559 0.927223 187.754315
16689 1 2 0.0 -33.892857 3.106072 188.440787
16690 1 2 0.0 -31.496926 -4.389783 183.750947
16691 1 2 0.0 -34.171151 -0.306540 187.975446
16692 1 2 0.0 -33.743761 -3.716260 186.077660
16693 1 1 0.0 -27.942216 -6.704020 184.851865
16694 1 1 0.0 -30.639087 -4.436888 187.195941
16695 1 1 0.0 -26.981307 -0.923962 188.221491
16696 1 1 0.0 -29.242338 -1.479545 187.104425
16697 1 2 0.0 -27.830186 -8.483148 184.307603
16698 1 2 0.0 -28.931067 -1.839463 185.218313
16699 1 2 0.0 -27.401687 -6.173961 186.086562
16700 1 2 0.0 -27.915359 -1.624927 187.335088
16701 1 2 0.0 -29.959664 0.304690 188.208965
16702 1 2 0.0 -27.044649 -6.260670 183.261023
16703 1 2 0.0 -30.080180 -2.788756 187.661112
16704 1 2 0.0 -29.456678 -5.806439 185.693964
16705 1 1 0.0 -42.216196 -3.292398 188.701192
16706 1 1 0.0 -44.196292 0.287831 190.371492
16707 1 1 0.0 -40.759459 4.843219 192.148152
16708 1 1 0.0 -42.824866 4.001743 190.421295
16709 1 2 0.0 -42.185302 -5.737554 188.241509
16710 1 2 0.0 -42.744759 3.223139 188.478167
16711 1 2 0.0 -41.699556 -2.470068 190.204625
16712 1 2 0.0 -41.700527 3.793110 191.022684
16713 1 2 0.0 -43.152054 6.504404 191.277076
16714 1 2 0.0 -41.516456 -3.036627 187.137081
16715 1 2 0.0 -43.591903 2.434789 190.919552
16716 1 2 0.0 -43.390166 -1.823194 189.144722
16717 1 1 0.0 -38.441520 -5.932385 189.059328
16718 1 1 0.0 -40.735691 -2.775488 190.983286
16719 1 1 0.0 -37.346461 1.629247 192.438035
16720 1 1 0.0 -39.405003 0.781811 190.943189
16721 1 2 0.0 -38.339275 -8.200921 188.584630
16722 1 2 0.0 -39.181750 0.110702 189.005900
16723 1 2 0.0 -37.980832 -5.158566 190.468738
16724 1 2 0.0 -38.236880 0.635272 191.405086
16725 1 2 0.0 -39.908811 3.076946 191.886702
16726 1 2 0.0 -37.634266 -5.608500 187.461627
16727 1 2 0.0 -40.190526 -0.737769 191.485740
16728 1 2 0.0 -39.748676 -4.660546 189.651593
16729 1 1 0.0 -34.405915 -8.122166 188.941222
16730 1 1 0.0 -36.981321 -5.389862 191.104045
16731 1 1 0.0 -33.630139 -1.215530 192.290606
16732 1 1 0.0 -35.693954 -2.041752 191.014948
16733 1 2 0.0 -34.241828 -10.190059 188.436500
16734 1 2 0.0 -35.351643 -2.607793 189.098028
16735 1 2 0.0 -33.982518 -7.404110 190.253446
16736 1 2 0.0 -34.480362 -2.137299 191.344568
16737 1 2 0.0 -36.359387 0.034868 192.045850
16738 1 2 0.0 -33.510943 -7.748148 187.333191
16739 1 2 0.0 -36.489289 -3.487811 191.577742
16740 1 2 0.0 -35.835262 -7.045958 189.675738
16741 1 1 0.0 -30.105106 -9.854363 188.339070
16742 1 1 0.0 -32.937955 -7.562587 190.741748
16743 1 1 0.0 -29.603721 -3.682867 191.696101
16744 1 1 0.0 -31.694780 -4.473116 190.641304
16745 1 2 0.0 -29.887946 -11.695509 187.787319
16746 1 2 0.0 -31.258166 -4.937847 188.760634
16747 1 2 0.0 -29.696264 -9.193473 189.544432
16748 1 2 0.0 -30.428333 -4.521133 190.837140
16749 1 2 0.0 -32.510952 -2.630854 191.765070
16750 1 2 0.0 -29.141967 -9.447466 186.743283
16751 1 2 0.0 -32.492031 -5.820747 191.201630
16752 1 2 0.0 -31.650821 -8.980920 189.218749
16753 1 1 0.0 -43.937929 -6.772190 192.246806
16754 1 1 0.0 -45.978192 -3.099269 193.858421
16755 1 1 0.0 -43.058534 1.706510 195.702075
16756 1 1 0.0 -44.836199 0.735647 193.920167
16757 1 2 0.0 -43.778062 -9.284207 191.792193
16758 1 2 0.0 -44.629222 -0.108632 191.969941
16759 1 2 0.0 -43.594564 -5.878203 193.768074
16760 1 2 0.0 -43.834876 0.564816 194.556987
16761 1 2 0.0 -45.239784 3.319308 194.748092
16762 1 2 0.0 -43.201455 -6.536959 190.686087
16763 1 2 0.0 -45.525101 -0.874827 194.413738
16764 1 2 0.0 -45.095996 -5.276343 192.657634
16765 1 1 0.0 -40.371461 -9.364458 192.662709
16766 1 1 0.0 -42.749530 -6.137851 194.567503
16767 1 1 0.0 -39.823624 -1.433070 196.042818
16768 1 1 0.0 -41.626299 -2.452275 194.532221
16769 1 2 0.0 -40.146908 -11.699958 192.188926
16770 1 2 0.0 -41.273684 -3.205066 192.592111
16771 1 2 0.0 -40.074844 -8.495665 194.074425
16772 1 2 0.0 -40.563912 -2.537776 195.005859
16773 1 2 0.0 -42.214541 -0.083288 195.464015
16774 1 2 0.0 -39.516559 -9.067589 191.065640
16775 1 2 0.0 -42.345365 -4.014687 195.072924
16776 1 2 0.0 -41.676369 -8.083867 193.245798
16777 1 1 0.0 -36.501977 -11.433901 192.525553
16778 1 1 0.0 -39.180383 -8.656097 194.707465
16779 1 1 0.0 -36.232172 -4.138678 195.869522
16780 1 1 0.0 -38.074908 -5.175355 194.616376
16781 1 2 0.0 -36.225049 -13.567381 192.017650
16782 1 2 0.0 -37.603250 -5.837064 192.700726
16783 1 2 0.0 -36.230821 -10.599335 193.824702
16784 1 2 0.0 -36.949169 -5.188135 194.934822
16785 1 2 0.0 -38.829731 -3.033306 195.650913
16786 1 2 0.0 -35.549661 -11.092734 190.915436
16787 1 2 0.0 -38.816515 -6.662633 195.180037
16788 1 2 0.0 -37.941205 -10.366967 193.273816
16789 1 1 0.0 -32.324511 -12.971952 191.826274
16790 1 1 0.0 -35.276285 -10.662464 194.287556
16791 1 1 0.0 -32.276218 -6.400626 195.170711
16792 1 1 0.0 -34.185618 -7.438480 194.178184
16793 1 2 0.0 -32.006687 -14.875539 191.267034
16794 1 2 0.0 -33.622317 -8.011110 192.302956
16795 1 2 0.0 -32.052811 -12.173870 193.002301
16796 1 2 0.0 -32.987550 -7.382186 194.339192
16797 1 2 0.0 -35.093772 -5.541346 195.321174
16798 1 2 0.0 -31.295473 -12.602915 190.225542
16799 1 2 0.0 -34.943022 -8.824961 194.742148
16800 1 2 0.0 -33.891547 -12.127372 192.743534
16801 1 1 0.0 -10.589595 40.189419 153.050371
16802 1 1 0.0 -10.554432 41.890682 155.424893
16803 1 1 0.0 -2.060122 42.198373 156.397633
16804 1 1 0.0 -6.407937 43.288788 155.331386
16805 1 2 0.0 -12.422988 39.057563 152.529863
16806 1 2 0.0 -7.642257 43.639231 153.473431
16807 1 2 0.0 -8.473733 39.843363 154.339786
16808 1 2 0.0 -4.514262 42.577803 155.507599
16809 1 2 0.0 -5.326107 44.207165 156.521439
16810 1 2 0.0 -10.290007 40.743773 151.445571
16811 1 2 0.0 -8.157966 42.575932 155.885871
16812 1 2 0.0 -11.186346 41.075038 153.886329
16813 1 1 0.0 -6.906702 37.310215 152.715298
16814 1 1 0.0 -6.850101 38.974196 154.869238
16815 1 1 0.0 1.040501 38.821813 156.077196
16816 1 1 0.0 -2.921388 40.245289 154.771358
16817 1 2 0.0 -8.633188 36.268889 152.229629
16818 1 2 0.0 -4.033184 40.791232 152.867914
16819 1 2 0.0 -4.966714 36.749019 154.097050
16820 1 2 0.0 -1.202902 39.380176 155.092368
16821 1 2 0.0 -1.873480 41.114888 155.855496
16822 1 2 0.0 -6.599426 37.960597 151.110021
16823 1 2 0.0 -4.594135 39.542614 155.336084
16824 1 2 0.0 -7.446399 38.237690 153.417681
16825 1 1 0.0 -3.552776 34.072125 152.825798
16826 1 1 0.0 -3.493998 35.716850 154.759560
16827 1 1 0.0 3.725936 35.118762 156.240164
16828 1 1 0.0 0.168571 36.853576 154.694356
16829 1 2 0.0 -5.147441 33.122254 152.359244
16830 1 2 0.0 -0.820580 37.567677 152.762207
16831 1 2 0.0 -1.798164 33.312330 154.294917
16832 1 2 0.0 1.707946 35.842353 155.158081
16833 1 2 0.0 1.162002 37.683372 155.681646
16834 1 2 0.0 -3.248391 34.794581 151.242812
16835 1 2 0.0 -1.402869 36.171205 155.246747
16836 1 2 0.0 -4.041818 35.046299 153.395356
16837 1 1 0.0 -0.533206 30.469267 153.389173
16838 1 1 0.0 -0.480466 32.124184 155.088612
16839 1 1 0.0 5.986915 31.081931 156.897331
16840 1 1 0.0 2.866109 33.117309 155.095301
16841 1 2 0.0 -1.971815 29.610519 152.927283
16842 1 2 0.0 2.001090 33.973810 153.149330
16843 1 2 0.0 1.021811 29.523072 154.946546
16844 1 2 0.0 4.214675 31.961267 155.709072
16845 1 2 0.0 3.790107 33.920561 155.988365
16846 1 2 0.0 -0.243270 31.238547 151.852723
16847 1 2 0.0 1.420604 32.466034 155.611964
16848 1 2 0.0 -0.971499 31.502032 153.817884
16849 1 1 0.0 -13.348367 37.462896 156.595985
16850 1 1 0.0 -13.460777 39.413275 158.911822
16851 1 1 0.0 -5.234840 39.953626 159.951556
16852 1 1 0.0 -9.463994 40.975191 158.830257
16853 1 2 0.0 -15.068052 36.214081 156.080546
16854 1 2 0.0 -10.617689 41.232575 156.965205
16855 1 2 0.0 -11.324076 37.186246 157.903236
16856 1 2 0.0 -7.606010 40.252666 159.041902
16857 1 2 0.0 -8.467097 42.058553 159.992455
16858 1 2 0.0 -13.011477 37.974328 154.994576
16859 1 2 0.0 -11.164026 40.207321 159.380057
16860 1 2 0.0 -13.996784 38.450275 157.399241
16861 1 1 0.0 -9.595374 34.433813 156.318680
16862 1 1 0.0 -9.727513 36.315268 158.453455
16863 1 1 0.0 -2.072637 36.408856 159.681978
16864 1 1 0.0 -5.941194 37.741100 158.360390
16865 1 2 0.0 -11.204714 33.286084 155.833925
16866 1 2 0.0 -6.963675 38.187089 156.454126
16867 1 2 0.0 -7.742018 33.952816 157.702736
16868 1 2 0.0 -4.240989 36.879680 158.693140
16869 1 2 0.0 -4.997931 38.761859 159.432809
16870 1 2 0.0 -9.238655 35.037875 154.714034
16871 1 2 0.0 -7.570112 36.989648 158.923268
16872 1 2 0.0 -10.207747 35.444080 157.011886
16873 1 1 0.0 -6.114632 31.107717 156.410130
16874 1 1 0.0 -6.281508 32.936080 158.362980
16875 1 1 0.0 0.740276 32.589417 159.819080
16876 1 1 0.0 -2.751138 34.214853 158.295785
16877 1 2 0.0 -7.591135 30.064049 155.940395
16878 1 2 0.0 -3.644297 34.824620 156.364905
16879 1 2 0.0 -4.439533 30.436610 157.866174
16880 1 2 0.0 -1.212366 33.220955 158.748334
16881 1 2 0.0 -1.879327 35.180075 159.286709
16882 1 2 0.0 -5.749717 31.781342 154.825056
16883 1 2 0.0 -4.285742 33.491072 158.849042
16884 1 2 0.0 -6.695904 32.145256 156.993434
16885 1 1 0.0 -2.910603 27.479740 156.876377
16886 1 1 0.0 -3.118094 29.280283 158.634419
16887 1 1 0.0 3.196103 28.489176 160.371941
16888 1 1 0.0 0.109675 30.399523 158.632181
16889 1 2 0.0 -4.232298 26.542108 156.406999
16890 1 2 0.0 -0.654882 31.149593 156.691651
16891 1 2 0.0 -1.424970 26.629184 158.404416
16892 1 2 0.0 1.476828 29.273918 159.211123
16893 1 2 0.0 0.896926 31.319877 159.544469
16894 1 2 0.0 -2.549985 28.198728 155.334983
16895 1 2 0.0 -1.306952 29.715190 159.152482
16896 1 2 0.0 -3.460340 28.554767 157.342668
16897 1 1 0.0 -16.077317 34.709037 160.141600
16898 1 1 0.0 -16.327808 36.895705 162.398751
16899 1 1 0.0 -8.385240 37.677955 163.505478
16900 1 1 0.0 -12.483244 38.619675 162.329129
16901 1 2 0.0 -17.684087 33.345941 159.631229
16902 1 2 0.0 -13.552742 38.783291 160.456979
16903 1 2 0.0 -14.150367 34.505349 161.466685
16904 1 2 0.0 -10.668054 37.892558 162.576205
16905 1 2 0.0 -11.568444 39.861194 163.463471
16906 1 2 0.0 -15.702743 35.178094 158.543582
16907 1 2 0.0 -14.132835 37.797661 162.874243
16908 1 2 0.0 -16.770925 35.791130 160.912153
16909 1 1 0.0 -12.278062 31.551927 159.922062
16910 1 1 0.0 -12.588064 33.639114 162.037671
16911 1 1 0.0 -5.182383 33.991587 163.286761
16912 1 1 0.0 -8.946339 35.220211 161.949422
16913 1 2 0.0 -13.771451 30.299212 159.438221
16914 1 2 0.0 -9.877325 35.565167 160.040337
16915 1 2 0.0 -10.516162 31.155466 161.308423
16916 1 2 0.0 -7.271174 34.369881 162.293913
16917 1 2 0.0 -8.104026 36.386256 163.010123
16918 1 2 0.0 -11.872529 32.110403 158.318048
16919 1 2 0.0 -10.530781 34.419813 162.510452
16920 1 2 0.0 -12.956207 32.638261 160.606091
16921 1 1 0.0 -8.694345 28.159676 159.994461
16922 1 1 0.0 -9.074609 30.161022 161.966399
16923 1 1 0.0 -2.262917 30.082370 163.397996
16924 1 1 0.0 -5.678329 31.584652 161.897214
16925 1 2 0.0 -10.054279 27.022365 159.521546
16926 1 2 0.0 -6.474710 32.088631 159.967603
16927 1 2 0.0 -7.102636 27.582377 161.437431
16928 1 2 0.0 -4.146579 30.615923 162.338587
16929 1 2 0.0 -4.923584 32.680378 162.891772
16930 1 2 0.0 -8.270536 28.785392 158.407300
16931 1 2 0.0 -7.175251 30.818251 162.451338
16932 1 2 0.0 -9.360508 29.254177 160.591512
16933 1 1 0.0 -5.329695 24.528432 160.363581
16934 1 1 0.0 -5.783765 26.465031 162.180226
16935 1 1 0.0 0.366832 25.945328 163.846551
16936 1 1 0.0 -2.676386 27.715480 162.169060
16937 1 2 0.0 -6.536471 23.510809 159.886715
16938 1 2 0.0 -3.341087 28.357293 160.233973
16939 1 2 0.0 -3.916377 23.779417 161.862285
16940 1 2 0.0 -1.296721 26.628600 162.713175
16941 1 2 0.0 -2.020468 28.748967 163.100574
16942 1 2 0.0 -4.901042 25.198237 158.817242
16943 1 2 0.0 -4.063089 26.995841 162.693000
16944 1 2 0.0 -5.983107 25.639639 160.867453
16945 1 1 0.0 -18.778592 31.929810 163.687214
16946 1 1 0.0 -19.158289 34.340794 165.885680
16947 1 1 0.0 -11.513320 35.373902 167.059401
16948 1 1 0.0 -15.468643 36.225605 165.828001
16949 1 2 0.0 -20.273071 30.454824 163.181912
16950 1 2 0.0 -16.450827 36.294980 163.948753
16951 1 2 0.0 -16.954312 31.802360 165.030134
16952 1 2 0.0 -13.702801 35.500314 166.110508
16953 1 2 0.0 -14.633376 37.619057 166.934486
16954 1 2 0.0 -18.366162 32.357161 162.092587
16955 1 2 0.0 -17.067158 35.349998 166.368429
16956 1 2 0.0 -19.511358 33.100055 164.425065
16957 1 1 0.0 -14.955198 28.664951 163.525444
16958 1 1 0.0 -15.432939 30.946944 165.621888
16959 1 1 0.0 -8.289016 31.570358 166.891543
16960 1 1 0.0 -11.937999 32.683964 165.538454
16961 1 2 0.0 -16.333726 27.308548 163.042517
16962 1 2 0.0 -12.775557 32.926966 163.626549
16963 1 2 0.0 -13.289230 28.357051 164.914110
16964 1 2 0.0 -10.294097 31.851532 165.894685
16965 1 2 0.0 -11.193257 33.989919 166.587436
16966 1 2 0.0 -14.501466 29.178551 161.922061
16967 1 2 0.0 -13.477279 31.834362 166.097636
16968 1 2 0.0 -15.692697 29.821104 164.200297
16969 1 1 0.0 -11.290627 25.226824 163.578792
16970 1 1 0.0 -11.872907 27.391274 165.569819
16971 1 1 0.0 -5.282203 27.595787 166.976912
16972 1 1 0.0 -8.612402 28.962289 165.498642
16973 1 2 0.0 -12.535549 23.996076 163.102696
16974 1 2 0.0 -9.311253 29.359114 163.570300
16975 1 2 0.0 -9.785930 24.748107 165.008687
16976 1 2 0.0 -7.093565 28.025929 165.928841
16977 1 2 0.0 -7.970530 30.183989 166.496835
16978 1 2 0.0 -10.809327 25.805382 161.989544
16979 1 2 0.0 -10.070905 28.152202 166.053634
16980 1 2 0.0 -12.034880 26.372351 164.189590
16981 1 1 0.0 -7.787480 21.612590 163.850785
16982 1 1 0.0 -8.475507 23.676414 165.726034
16983 1 1 0.0 -2.497737 23.446369 167.321162
16984 1 1 0.0 -5.489696 25.062471 165.705940
16985 1 2 0.0 -8.881357 20.514092 163.366430
16986 1 2 0.0 -6.054971 25.594213 163.776294
16987 1 2 0.0 -6.449243 20.970640 165.320155
16988 1 2 0.0 -4.103080 24.021909 166.215227
16989 1 2 0.0 -4.960104 26.205407 166.656679
16990 1 2 0.0 -7.292981 22.234005 162.299501
16991 1 2 0.0 -6.845684 24.305649 166.233518
16992 1 2 0.0 -8.537379 22.754354 164.392238
16993 1 1 0.0 -21.453670 29.126570 167.232828
16994 1 1 0.0 -21.954117 31.750481 169.372610
16995 1 1 0.0 -14.620476 33.043239 170.613323
16996 1 1 0.0 -18.422252 33.795327 169.326873
16997 1 2 0.0 -22.836355 27.541877 166.732595
16998 1 2 0.0 -19.314332 33.770164 167.440527
16999 1 2 0.0 -19.737085 29.078439 168.593583
17000 1 2 0.0 -16.711930 33.077909 169.644811
17001 1 2 0.0 -17.664146 35.334913 170.405502
17002 1 2 0.0 -21.003370 29.512983 165.641592
17003 1 2 0.0 -19.968906 32.866439 169.862615
17004 1 2 0.0 -22.219865 30.378738 167.937977
17005 1 1 0.0 -17.627078 25.773157 167.128825
17006 1 1 0.0 -18.262951 28.239591 169.206105
17007 1 1 0.0 -11.392730 29.145418 170.496326
17008 1 1 0.0 -14.916996 30.133295 169.127486
17009 1 2 0.0 -18.891760 24.314284 166.646813
17010 1 2 0.0 -15.659365 30.273540 167.212760
17011 1 2 0.0 -16.061276 25.557627 168.519796
17012 1 2 0.0 -13.310205 29.325161 169.495458
17013 1 2 0.0 -14.266669 31.574128 170.164749
17014 1 2 0.0 -17.125755 26.242578 165.526074
17015 1 2 0.0 -16.410392 29.234161 169.684820
17016 1 2 0.0 -18.417849 26.993207 167.794502
17017 1 1 0.0 -13.902593 22.308348 167.163123
17018 1 1 0.0 -14.676133 24.626561 169.173239
17019 1 1 0.0 -8.316577 25.128390 170.555829
17020 1 1 0.0 -11.552939 26.347287 169.100071
17021 1 2 0.0 -15.034039 20.984415 166.683847
17022 1 2 0.0 -12.153531 26.635651 167.172998
17023 1 2 0.0 -12.488354 21.932750 168.579944
17024 1 2 0.0 -10.052539 25.450048 169.519094
17025 1 2 0.0 -11.020000 27.690702 170.101898
17026 1 2 0.0 -13.365034 22.840374 165.571789
17027 1 2 0.0 -12.972362 25.492547 169.655929
17028 1 2 0.0 -14.718504 23.499288 167.787667
17029 1 1 0.0 -10.281889 18.730320 167.337989
17030 1 1 0.0 -11.191968 20.913051 169.271841
17031 1 1 0.0 -5.395399 20.989493 170.795772
17032 1 1 0.0 -8.328595 22.438607 169.242819
17033 1 2 0.0 -11.264924 17.550231 166.846146
17034 1 2 0.0 -8.794747 22.858467 167.318615
17035 1 2 0.0 -9.021392 18.200700 168.778025
17036 1 2 0.0 -6.940230 21.451468 169.717278
17037 1 2 0.0 -7.920606 23.687505 170.212784
17038 1 2 0.0 -9.723399 19.303900 165.781760
17039 1 2 0.0 -9.653272 21.642998 169.774037
17040 1 2 0.0 -11.121492 19.897337 167.917023
17041 1 1 0.0 -24.103507 26.300194 170.778443
17042 1 1 0.0 -24.716502 29.126002 172.859539
17043 1 1 0.0 -17.707645 30.687160 174.167246
17044 1 1 0.0 -21.345445 31.330410 172.825744
17045 1 2 0.0 -25.374792 24.607824 170.283279
17046 1 2 0.0 -22.144872 31.210546 170.932301
17047 1 2 0.0 -22.499439 26.334329 172.157032
17048 1 2 0.0 -19.696565 30.626669 173.179114
17049 1 2 0.0 -20.662262 33.010615 173.876518
17050 1 2 0.0 -23.615455 26.646522 169.190597
17051 1 2 0.0 -22.839326 30.348358 173.356801
17052 1 2 0.0 -24.897589 27.628262 171.450889
17053 1 1 0.0 -20.293893 22.876721 170.732207
17054 1 1 0.0 -21.078619 25.517584 172.790321
17055 1 1 0.0 -14.493657 26.716933 174.101109
17056 1 1 0.0 -17.883877 27.568826 172.716518
17057 1 2 0.0 -21.445696 21.316538 170.251109
17058 1 2 0.0 -18.529424 27.605599 170.798972
17059 1 2 0.0 -18.832338 22.757230 172.125483
17060 1 2 0.0 -16.319797 26.791118 173.096230
17061 1 2 0.0 -17.324960 29.139745 173.742062
17062 1 2 0.0 -19.745589 23.302654 169.130087
17063 1 2 0.0 -19.330631 26.619773 173.272004
17064 1 2 0.0 -21.132070 24.154956 171.388707
17065 1 1 0.0 -16.529672 19.403725 170.747455
17066 1 1 0.0 -17.484115 21.866706 172.776659
17067 1 1 0.0 -11.365361 22.679319 174.134745
17068 1 1 0.0 -14.499658 23.739327 172.701499
17069 1 2 0.0 -17.549178 17.986896 170.264997
17070 1 2 0.0 -15.001275 23.917958 170.775696
17071 1 2 0.0 -15.209229 19.135636 172.151201
17072 1 2 0.0 -13.022976 22.887661 173.109347
17073 1 2 0.0 -14.071881 25.200381 173.706961
17074 1 2 0.0 -15.936955 19.889747 169.154033
17075 1 2 0.0 -15.879400 22.839043 173.258225
17076 1 2 0.0 -17.411048 20.634675 171.385745
17077 1 1 0.0 -12.811588 15.880397 170.825193
17078 1 1 0.0 -13.932284 18.174057 172.817649
17079 1 1 0.0 -8.324673 18.572815 174.270382
17080 1 1 0.0 -11.191977 19.842627 172.779699
17081 1 2 0.0 -13.685889 14.618135 170.325861
17082 1 2 0.0 -11.559206 20.148778 170.860937
17083 1 2 0.0 -11.631425 15.468216 172.235895
17084 1 2 0.0 -9.806820 18.915686 173.219330
17085 1 2 0.0 -10.901053 21.194127 173.768888
17086 1 2 0.0 -12.190700 16.406508 169.264020
17087 1 2 0.0 -12.484896 19.006834 173.314555
17088 1 2 0.0 -13.734378 17.067574 171.441807
17089 1 1 0.0 -26.728617 23.451152 174.324057
17090 1 1 0.0 -27.446080 26.468006 176.346468
17091 1 1 0.0 -20.775393 28.306382 177.721168
17092 1 1 0.0 -24.239042 28.831783 176.324616
17093 1 2 0.0 -27.888808 21.653029 173.833962
17094 1 2 0.0 -24.943438 28.617175 174.424075
17095 1 2 0.0 -25.241773 23.570426 175.720482
17096 1 2 0.0 -22.657378 28.147383 176.713417
17097 1 2 0.0 -23.628631 30.647279 177.347534
17098 1 2 0.0 -26.203045 23.758337 172.739602
17099 1 2 0.0 -25.679111 27.796518 176.850987
17100 1 2 0.0 -27.545140 24.849204 174.963801
17101 1 1 0.0 -22.955747 19.975737 174.335589
17102 1 1 0.0 -23.880217 22.781203 176.374538
17103 1 1 0.0 -17.591874 24.285002 177.705891
17104 1 1 0.0 -20.838967 24.990930 176.305549
17105 1 2 0.0 -23.995603 18.315369 173.855405
17106 1 2 0.0 -21.386147 24.923579 174.385183
17107 1 2 0.0 -21.602435 19.955879 175.731170
17108 1 2 0.0 -19.323052 24.249615 176.697003
17109 1 2 0.0 -20.368550 26.687283 177.319375
17110 1 2 0.0 -22.361081 20.358878 172.734100
17111 1 2 0.0 -22.238282 23.991514 176.859188
17112 1 2 0.0 -23.835576 21.306555 174.982913
17113 1 1 0.0 -19.171556 16.512673 174.331786
17114 1 1 0.0 -20.296762 19.111618 176.380078
17115 1 1 0.0 -14.428150 20.248057 177.713661
17116 1 1 0.0 -17.452395 21.138220 176.302928
17117 1 2 0.0 -20.080680 15.003276 173.846148
17118 1 2 0.0 -17.854321 21.205863 174.378394
17119 1 2 0.0 -17.948195 16.356406 175.722457
17120 1 2 0.0 -16.004559 20.338398 176.699600
17121 1 2 0.0 -17.126107 22.712943 177.312024
17122 1 2 0.0 -18.524684 16.953141 172.736277
17123 1 2 0.0 -18.791896 20.191553 176.860520
17124 1 2 0.0 -20.112336 17.778345 174.983823
17125 1 1 0.0 -15.375858 13.062163 174.312397
17126 1 1 0.0 -16.696002 15.458972 176.363456
17127 1 1 0.0 -11.284662 16.195198 177.744992
17128 1 1 0.0 -14.079183 17.273781 176.316578
17129 1 2 0.0 -16.143609 11.717259 173.805577
17130 1 2 0.0 -14.347603 17.464361 174.403258
17131 1 2 0.0 -14.278605 12.772458 175.693765
17132 1 2 0.0 -12.702041 16.413611 176.721382
17133 1 2 0.0 -13.900890 18.724594 177.324993
17134 1 2 0.0 -14.693960 13.541008 172.746279
17135 1 2 0.0 -15.340024 16.396570 176.855073
17136 1 2 0.0 -16.375464 14.264524 174.966592
17137 1 1 0.0 -29.329115 20.579551 177.869671
17138 1 1 0.0 -30.142960 23.776605 179.833397
17139 1 1 0.0 -23.823962 25.901217 181.275091
17140 1 1 0.0 -27.103371 26.299823 179.823488
17141 1 2 0.0 -30.378443 18.677524 177.384645
17142 1 2 0.0 -27.710488 25.990531 177.915849
17143 1 2 0.0 -27.964163 20.786806 179.283931
17144 1 2 0.0 -25.594649 25.640381 180.247720
17145 1 2 0.0 -26.563631 28.245372 180.818549
17146 1 2 0.0 -28.766372 20.848632 176.288607
17147 1 2 0.0 -28.488459 25.211137 180.345173
17148 1 2 0.0 -30.162644 22.041684 178.476713
17149 1 1 0.0 -25.612663 17.070227 177.938971
17150 1 1 0.0 -26.667790 20.030493 179.958755
17151 1 1 0.0 -20.687416 21.849670 181.310674
17152 1 1 0.0 -23.782399 22.399755 179.894581
17153 1 2 0.0 -26.541487 15.310784 177.459701
17154 1 2 0.0 -24.229725 22.227682 177.971394
17155 1 2 0.0 -24.371571 17.153578 179.336857
17156 1 2 0.0 -22.320044 21.700738 180.297775
17157 1 2 0.0 -23.397614 24.216961 180.896688
17158 1 2 0.0 -24.972270 17.411286 176.338113
17159 1 2 0.0 -25.133425 21.349472 180.446372
17160 1 2 0.0 -26.528413 18.448047 178.577118
17161 1 1 0.0 -21.828175 13.635128 177.916117
17162 1 1 0.0 -23.114060 16.361280 179.983498
17163 1 1 0.0 -17.504766 17.834379 181.292577
17164 1 1 0.0 -20.411082 18.543891 179.904356
17165 1 2 0.0 -22.628520 12.033532 177.427298
17166 1 2 0.0 -20.712593 18.499285 177.981091
17167 1 2 0.0 -20.705180 13.594993 179.293714
17168 1 2 0.0 -18.997160 17.802105 180.289854
17169 1 2 0.0 -20.182650 20.228354 180.917087
17170 1 2 0.0 -21.128073 14.030423 176.318522
17171 1 2 0.0 -21.709814 17.550038 180.462816
17172 1 2 0.0 -22.822331 14.930262 178.581901
17173 1 1 0.0 -17.974536 10.275469 177.799601
17174 1 1 0.0 -19.483044 12.767716 179.909263
17175 1 1 0.0 -14.274982 13.856152 181.219602
17176 1 1 0.0 -16.989949 14.731766 179.853458
17177 1 2 0.0 -18.638024 8.847553 177.285292
17178 1 2 0.0 -17.159599 14.804857 177.945579
17179 1 2 0.0 -16.962787 10.113283 179.151634
17180 1 2 0.0 -15.625560 13.944851 180.223433
17181 1 2 0.0 -16.919887 16.278619 180.881098
17182 1 2 0.0 -17.232841 10.707101 176.228538
17183 1 2 0.0 -18.218504 13.812040 180.395591
17184 1 2 0.0 -19.044636 11.488078 178.491377
17185 1 1 0.0 -31.904730 17.685140 181.415286
17186 1 1 0.0 -32.806732 21.051381 183.320327
17187 1 1 0.0 -26.853293 23.471586 184.829013
17188 1 1 0.0 -29.938299 23.734378 183.322360
17189 1 2 0.0 -32.843348 15.681013 180.935328
17190 1 2 0.0 -30.445976 23.330569 181.407622
17191 1 2 0.0 -30.666373 17.983233 182.847380
17192 1 2 0.0 -28.508283 23.105551 183.782023
17193 1 2 0.0 -29.467149 25.804752 184.289565
17194 1 2 0.0 -31.305283 17.917272 179.837613
17195 1 2 0.0 -31.267087 22.591904 183.839360
17196 1 2 0.0 -32.749751 19.205370 181.989625
17197 1 1 0.0 -28.264587 14.160141 181.542352
17198 1 1 0.0 -29.441164 17.265277 183.542971
17199 1 1 0.0 -23.780275 19.410925 184.915456
17200 1 1 0.0 -26.714119 19.795241 183.483613
17201 1 2 0.0 -29.083292 12.302734 181.063997
17202 1 2 0.0 -27.060139 19.517888 181.557606
17203 1 2 0.0 -27.139734 14.350314 182.942543
17204 1 2 0.0 -25.310749 19.144458 183.898548
17205 1 2 0.0 -26.412099 21.728711 184.474001
17206 1 2 0.0 -27.579130 14.459855 179.942126
17207 1 2 0.0 -28.015945 18.693519 184.033556
17208 1 2 0.0 -29.210455 15.579314 182.171323
17209 1 1 0.0 -24.499693 10.771239 181.500448
17210 1 1 0.0 -25.936065 13.615752 183.586918
17211 1 1 0.0 -20.595254 15.438340 184.871493
17212 1 1 0.0 -23.375746 15.956368 183.505785
17213 1 2 0.0 -25.192929 9.077864 181.008449
17214 1 2 0.0 -23.576099 15.798232 181.583789
17215 1 2 0.0 -23.480401 10.851609 182.864971
17216 1 2 0.0 -22.000821 15.278834 183.880107
17217 1 2 0.0 -23.241519 17.746624 184.522150
17218 1 2 0.0 -23.747219 11.121681 179.900766
17219 1 2 0.0 -24.633206 14.914555 184.065111
17220 1 2 0.0 -25.541134 12.090523 182.179979
17221 1 1 0.0 -20.608004 7.520664 181.286805
17222 1 1 0.0 -22.293702 10.100585 183.455071
17223 1 1 0.0 -17.295729 11.555798 184.694212
17224 1 1 0.0 -19.924380 12.216706 183.390338
17225 1 2 0.0 -21.169660 6.009463 180.765008
17226 1 2 0.0 -19.995226 12.170299 181.487901
17227 1 2 0.0 -19.684411 7.491126 182.609504
17228 1 2 0.0 -18.577488 11.509537 183.725485
17229 1 2 0.0 -19.958113 13.856290 184.437203
17230 1 2 0.0 -19.807567 7.904985 179.710797
17231 1 2 0.0 -21.120554 11.253482 183.936109
17232 1 2 0.0 -21.742219 8.738545 182.016162
17233 1 1 0.0 -34.454779 14.767295 184.960900
17234 1 1 0.0 -35.436438 18.291355 186.807256
17235 1 1 0.0 -29.863017 21.017022 188.382936
17236 1 1 0.0 -32.743222 21.134759 186.821231
17237 1 2 0.0 -35.282760 12.662848 184.486011
17238 1 2 0.0 -33.149357 20.636711 184.899396
17239 1 2 0.0 -33.347829 15.159142 186.410829
17240 1 2 0.0 -31.397806 20.542337 187.316326
17241 1 2 0.0 -32.338561 23.324654 187.760581
17242 1 2 0.0 -33.819229 14.963770 183.386618
17243 1 2 0.0 -34.014210 19.937953 187.333546
17244 1 2 0.0 -35.305608 16.339456 185.502537
17245 1 1 0.0 -30.911381 11.245353 185.145734
17246 1 1 0.0 -32.199927 14.485135 187.127188
17247 1 1 0.0 -26.870399 16.968703 188.520239
17248 1 1 0.0 -29.633887 17.177114 187.072645
17249 1 2 0.0 -31.620891 9.291111 184.668293
17250 1 2 0.0 -29.877162 16.793957 185.143817
17251 1 2 0.0 -29.906896 11.546061 186.548230
17252 1 2 0.0 -28.295039 16.580628 187.499320
17253 1 2 0.0 -29.411717 19.222180 188.051314
17254 1 2 0.0 -30.181564 11.504497 183.546139
17255 1 2 0.0 -30.885519 16.023300 187.620740
17256 1 2 0.0 -31.881400 12.700070 185.765529
17257 1 1 0.0 -27.186518 7.921381 185.084780
17258 1 1 0.0 -28.762915 10.875173 187.190338
17259 1 1 0.0 -23.699878 13.060280 188.450409
17260 1 1 0.0 -26.346510 13.375793 187.107214
17261 1 2 0.0 -27.774420 6.136704 184.589600
17262 1 2 0.0 -26.444929 13.102799 185.186487
17263 1 2 0.0 -26.274374 8.126764 186.436227
17264 1 2 0.0 -25.015765 12.768845 187.470360
17265 1 2 0.0 -26.302758 15.267810 188.127213
17266 1 2 0.0 -26.382477 8.227228 183.483010
17267 1 2 0.0 -27.562210 12.285256 187.667407
17268 1 2 0.0 -28.268993 9.259363 185.778057
17269 1 1 0.0 -23.277216 4.798623 184.774009
17270 1 1 0.0 -25.128659 7.458280 187.000878
17271 1 1 0.0 -20.347484 9.294877 188.168822
17272 1 1 0.0 -22.882964 9.729154 186.927217
17273 1 2 0.0 -23.739665 3.203963 184.244724
17274 1 2 0.0 -22.854893 9.561120 185.030222
17275 1 2 0.0 -22.444540 4.907038 186.067374
17276 1 2 0.0 -21.558394 9.108339 187.227537
17277 1 2 0.0 -23.015949 11.458074 187.993307
17278 1 2 0.0 -22.418942 5.135374 183.193057
17279 1 2 0.0 -24.046776 8.721561 187.476627
17280 1 2 0.0 -24.469009 6.016678 185.540946
17281 1 1 0.0 -36.978110 11.824961 188.506515
17282 1 1 0.0 -38.030490 15.494902 190.294185
17283 1 1 0.0 -32.852428 18.536627 191.936859
17284 1 1 0.0 -35.517010 18.499680 190.320103
17285 1 2 0.0 -37.695436 9.621974 188.036695
17286 1 2 0.0 -35.819536 17.907803 188.391170
17287 1 2 0.0 -36.007579 12.313590 189.974278
17288 1 2 0.0 -34.262329 17.949689 190.850629
17289 1 2 0.0 -35.176693 20.803631 191.231596
17290 1 2 0.0 -36.307223 11.987251 186.935623
17291 1 2 0.0 -36.728473 17.247792 190.827732
17292 1 2 0.0 -37.828789 13.442589 189.015449
17293 1 1 0.0 -33.552815 8.325651 188.749116
17294 1 1 0.0 -34.943398 11.689369 190.711405
17295 1 1 0.0 -29.957689 14.522877 192.125022
17296 1 1 0.0 -32.541252 14.544862 190.661677
17297 1 2 0.0 -34.154079 6.275742 188.272589
17298 1 2 0.0 -32.680336 14.055407 188.730029
17299 1 2 0.0 -32.673012 8.740774 190.153917
17300 1 2 0.0 -31.272678 14.008967 191.100093
17301 1 2 0.0 -32.395924 16.696699 191.628627
17302 1 2 0.0 -32.779396 8.545059 187.150152
17303 1 2 0.0 -33.741590 13.338201 191.207924
17304 1 2 0.0 -34.540741 9.809834 189.359734
17305 1 1 0.0 -29.889339 5.086185 188.669111
17306 1 1 0.0 -31.594835 8.139774 190.793757
17307 1 1 0.0 -26.819149 10.700845 192.029326
17308 1 1 0.0 -29.323604 10.802428 190.708642
17309 1 2 0.0 -30.373825 3.210761 188.170750
17310 1 2 0.0 -29.319264 10.413179 188.789184
17311 1 2 0.0 -29.087961 5.421312 190.007484
17312 1 2 0.0 -28.042408 10.272630 191.060614
17313 1 2 0.0 -29.366456 12.792018 191.732276
17314 1 2 0.0 -29.034484 5.347630 187.065255
17315 1 2 0.0 -30.497069 9.662409 191.269702
17316 1 2 0.0 -31.006322 6.437171 189.376134
17317 1 1 0.0 -25.983780 2.110820 188.261213
17318 1 1 0.0 -27.989050 4.841957 190.546685
17319 1 1 0.0 -23.431365 7.074810 191.643433
17320 1 1 0.0 -25.866610 7.270145 190.464097
17321 1 2 0.0 -26.349908 0.432642 187.724439
17322 1 2 0.0 -25.739419 6.978185 188.572543
17323 1 2 0.0 -25.244945 2.362770 189.525244
17324 1 2 0.0 -24.569350 6.742518 190.729588
17325 1 2 0.0 -26.094112 9.084854 191.549412
17326 1 2 0.0 -25.068417 2.399555 186.675316
17327 1 2 0.0 -26.998209 6.217422 191.017145
17328 1 2 0.0 -27.226342 3.323743 189.065731
17329 1 1 0.0 -39.473000 8.856555 192.052129
17330 1 1 0.0 -40.586519 12.659606 193.781115
17331 1 1 0.0 -35.820419 16.028992 195.490781
17332 1 1 0.0 -38.257913 15.827147 193.818975
17333 1 2 0.0 -40.079539 6.556829 191.587378
17334 1 2 0.0 -38.454776 15.142010 191.882944
17335 1 2 0.0 -38.644195 9.445167 193.537728
17336 1 2 0.0 -37.100462 15.325973 194.384932
17337 1 2 0.0 -37.979706 18.239426 194.702612
17338 1 2 0.0 -38.767748 8.986370 190.484628
17339 1 2 0.0 -39.407831 14.519168 194.321918
17340 1 2 0.0 -40.317160 10.512748 192.528361
17341 1 1 0.0 -36.188542 5.400719 192.352498
17342 1 1 0.0 -37.670561 8.876943 194.295621
17343 1 1 0.0 -33.041992 12.073252 195.729804
17344 1 1 0.0 -35.435517 11.897690 194.250709
17345 1 2 0.0 -36.682553 3.256369 191.876885
17346 1 2 0.0 -35.468938 11.301472 192.316240
17347 1 2 0.0 -35.438013 5.934384 193.759603
17348 1 2 0.0 -34.243297 11.429042 194.700865
17349 1 2 0.0 -35.363868 14.151221 195.205940
17350 1 2 0.0 -35.372357 5.581301 190.754165
17351 1 2 0.0 -36.583318 10.637297 194.795108
17352 1 2 0.0 -37.187721 6.907889 192.953939
17353 1 1 0.0 -32.609189 2.266599 192.253442
17354 1 1 0.0 -34.432162 5.409899 194.397177
17355 1 1 0.0 -29.953865 8.361050 195.608242
17356 1 1 0.0 -32.307383 8.236676 194.310071
17357 1 2 0.0 -32.992376 0.301080 191.751901
17358 1 2 0.0 -32.199394 7.729676 192.391882
17359 1 2 0.0 -31.922451 2.736526 193.578741
17360 1 2 0.0 -31.081400 7.790954 194.650867
17361 1 2 0.0 -32.432747 10.319416 195.337339
17362 1 2 0.0 -31.704219 2.483756 190.647499
17363 1 2 0.0 -33.438146 7.046415 194.871998
17364 1 2 0.0 -33.753737 3.624535 192.974212
17365 1 1 0.0 -28.730109 -0.540533 191.748417
17366 1 1 0.0 -30.876562 2.253342 194.092493
17367 1 1 0.0 -26.549123 4.897823 195.118043
17368 1 1 0.0 -28.876727 4.841284 194.000976
17369 1 2 0.0 -29.003158 -2.302150 191.204155
17370 1 2 0.0 -28.650105 4.422867 192.114865
17371 1 2 0.0 -28.088270 -0.139065 192.983113
17372 1 2 0.0 -27.612025 4.414039 194.231640
17373 1 2 0.0 -29.193725 6.738009 195.105517
17374 1 2 0.0 -27.758219 -0.300499 190.157575
17375 1 2 0.0 -29.976422 3.742793 194.557663
17376 1 2 0.0 -30.016211 0.661627 192.590516
17377 1 1 0.0 -41.936973 5.859811 195.597743
17378 1 1 0.0 -43.101132 9.781998 197.268044
17379 1 1 0.0 -38.765376 13.492066 199.044704
17380 1 1 0.0 -40.963388 13.114265 197.317847
17381 1 2 0.0 -42.432438 3.465180 195.138061
17382 1 2 0.0 -41.052530 12.336644 195.374718
17383 1 2 0.0 -41.255635 6.551853 197.101177
17384 1 2 0.0 -39.910185 12.668810 197.919236
17385 1 2 0.0 -40.744928 15.628750 198.173628
17386 1 2 0.0 -41.198609 5.959179 194.033633
17387 1 2 0.0 -42.049341 11.748835 197.816104
17388 1 2 0.0 -42.767661 7.547034 196.041273
17389 1 1 0.0 -38.818066 2.470101 195.955879
17390 1 1 0.0 -40.379961 6.046371 197.879838
17391 1 1 0.0 -36.123081 9.619541 199.334587
17392 1 1 0.0 -38.315670 9.234444 197.839741
17393 1 2 0.0 -39.205880 0.232623 195.481181
17394 1 2 0.0 -38.241905 8.531032 195.902452
17395 1 2 0.0 -38.201800 3.126795 197.365290
17396 1 2 0.0 -37.206359 8.840219 198.301638
17397 1 2 0.0 -38.314313 11.584223 198.783253
17398 1 2 0.0 -37.960059 2.612878 194.358178
17399 1 2 0.0 -39.409493 7.919254 198.382292
17400 1 2 0.0 -39.821254 3.993205 196.548145
17401 1 1 0.0 -35.347550 -0.536020 195.837773
17402 1 1 0.0 -37.275379 2.686041 198.000597
17403 1 1 0.0 -33.105188 6.042374 199.187158
17404 1 1 0.0 -35.298365 5.679128 197.911499
17405 1 2 0.0 -35.631835 -2.590841 195.333051
17406 1 2 0.0 -35.085739 5.052734 195.994580
17407 1 2 0.0 -34.779690 0.074231 197.149997
17408 1 2 0.0 -34.133687 5.324928 198.241120
17409 1 2 0.0 -35.501830 7.850247 198.942402
17410 1 2 0.0 -34.393099 -0.363139 194.229743
17411 1 2 0.0 -36.385966 4.437850 198.474293
17412 1 2 0.0 -36.512126 0.822294 196.572290
17413 1 1 0.0 -31.519663 -3.152266 195.235621
17414 1 1 0.0 -33.793616 -0.305091 197.638300
17415 1 1 0.0 -29.703310 2.767161 198.592653
17416 1 1 0.0 -31.915362 2.444904 197.537856
17417 1 2 0.0 -31.703371 -4.997049 194.683870
17418 1 2 0.0 -31.588859 1.897178 195.657186
17419 1 2 0.0 -30.978307 -2.594716 196.440983
17420 1 2 0.0 -30.688845 2.125761 197.733692
17421 1 2 0.0 -32.316420 4.419548 198.661621
17422 1 2 0.0 -30.491570 -2.961928 193.639834
17423 1 2 0.0 -32.983674 1.300165 198.098182
17424 1 2 0.0 -32.841475 -1.966960 196.115301
17425 1 1 0.0 -44.366505 2.831496 199.143358
17426 1 1 0.0 -45.569498 6.857143 0.754973
17427 1 1 0.0 -41.685000 10.922925 2.598626
17428 1 1 0.0 -43.629812 10.356906 0.816719
17429 1 2 0.0 -44.750385 0.343842 198.688744
17430 1 2 0.0 -43.609168 9.487871 198.866492
17431 1 2 0.0 -43.838987 3.630769 0.664626
17432 1 2 0.0 -42.688622 9.974814 1.453539
17433 1 2 0.0 -43.468550 12.966920 1.644643
17434 1 2 0.0 -43.596682 2.902907 197.582638
17435 1 2 0.0 -44.648812 8.932177 1.310290
17436 1 2 0.0 -45.175935 4.541321 199.554185
17437 1 1 0.0 -41.440680 -0.466851 199.559261
17438 1 1 0.0 -43.069526 3.195534 1.464055
17439 1 1 0.0 -39.200638 7.161337 2.939369
17440 1 1 0.0 -41.180266 6.553481 1.428773
17441 1 2 0.0 -41.723440 -2.796021 199.085477
17442 1 2 0.0 -40.997723 5.742488 199.488663
17443 1 2 0.0 -40.964233 0.317866 0.970977
17444 1 2 0.0 -40.161097 6.241597 1.902410
17445 1 2 0.0 -41.245493 8.993538 2.360566
17446 1 2 0.0 -40.541947 -0.360702 197.962191
17447 1 2 0.0 -42.218393 5.182175 1.969476
17448 1 2 0.0 -42.439791 1.064317 0.142350
17449 1 1 0.0 -38.106531 -3.319736 199.422105
17450 1 1 0.0 -40.125173 -0.031099 1.604017
17451 1 1 0.0 -36.274778 3.746928 2.766074
17452 1 1 0.0 -38.297286 3.130622 1.512928
17453 1 2 0.0 -38.294714 -5.462869 198.914202
17454 1 2 0.0 -37.978903 2.382991 199.597277
17455 1 2 0.0 -37.662308 -2.562972 0.721254
17456 1 2 0.0 -37.200614 2.876139 1.831373
17457 1 2 0.0 -38.573985 5.384855 2.547465
17458 1 2 0.0 -37.103139 -3.191265 197.811987
17459 1 2 0.0 -39.341275 1.837539 2.076589
17460 1 2 0.0 -39.282753 -1.968355 0.170368
17461 1 1 0.0 -34.357369 -5.719860 198.722825
17462 1 1 0.0 -36.743660 -2.829823 1.184108
17463 1 1 0.0 -32.897563 0.687450 2.067263
17464 1 1 0.0 -34.985430 0.084325 1.074735
17465 1 2 0.0 -34.456189 -7.647266 198.163586
17466 1 2 0.0 -34.558397 -0.596010 199.199507
17467 1 2 0.0 -33.920456 -4.998845 199.898853
17468 1 2 0.0 -33.803271 -0.118247 1.235743
17469 1 2 0.0 -35.464525 2.132331 2.217726
17470 1 2 0.0 -33.273056 -5.580665 197.122094
17471 1 2 0.0 -36.023179 -1.106922 1.638700
17472 1 2 0.0 -35.706208 -4.558160 199.640085
17473 1 1 0.0 -1.702479 41.526262 159.946923
17474 1 1 0.0 -1.302416 43.180192 162.321444
17475 1 1 0.0 7.059445 41.654664 163.294185
17476 1 1 0.0 3.047687 43.654237 162.227937
17477 1 2 0.0 -3.736324 40.814994 159.426414
17478 1 2 0.0 1.917560 44.261830 160.369982
17479 1 2 0.0 0.289523 40.733449 161.236338
17480 1 2 0.0 4.744248 42.552790 162.404151
17481 1 2 0.0 4.301649 44.318582 163.417991
17482 1 2 0.0 -1.290725 42.003253 158.342123
17483 1 2 0.0 1.185329 43.334252 162.782423
17484 1 2 0.0 -2.094896 42.519460 160.782880
17485 1 1 0.0 1.275366 37.922660 159.611850
17486 1 1 0.0 1.688351 39.535570 161.765790
17487 1 1 0.0 9.361716 37.690503 162.973747
17488 1 1 0.0 5.798460 39.932389 161.667910
17489 1 2 0.0 -0.634610 37.276822 159.126181
17490 1 2 0.0 4.830019 40.704571 159.764466
17491 1 2 0.0 3.049358 36.957544 160.993601
17492 1 2 0.0 7.290795 38.718078 161.988919
17493 1 2 0.0 7.008807 40.556388 162.752048
17494 1 2 0.0 1.715272 38.491781 158.006573
17495 1 2 0.0 4.013766 39.605733 162.232635
17496 1 2 0.0 0.947667 38.944469 160.314232
17497 1 1 0.0 3.854786 34.039279 159.722350
17498 1 1 0.0 4.265756 35.632916 161.656112
17499 1 1 0.0 11.188322 33.496738 163.136716
17500 1 1 0.0 8.087059 35.955722 161.590908
17501 1 2 0.0 2.093208 33.454422 159.255796
17502 1 2 0.0 7.274545 36.865766 159.658759
17503 1 2 0.0 5.405043 32.920058 161.191469
17504 1 2 0.0 9.373062 34.637220 162.054632
17505 1 2 0.0 9.235646 36.552560 162.578197
17506 1 2 0.0 4.307361 34.679412 158.139363
17507 1 2 0.0 6.405669 35.627118 162.143299
17508 1 2 0.0 3.586595 35.095807 160.291908
17509 1 1 0.0 6.029252 29.871536 160.285724
17510 1 1 0.0 6.436517 31.476425 161.985163
17511 1 1 0.0 12.528640 29.068243 163.793883
17512 1 1 0.0 9.918344 31.726916 161.991853
17513 1 2 0.0 4.439671 29.342123 159.823835
17514 1 2 0.0 9.257670 32.749346 160.045882
17515 1 2 0.0 7.344510 28.613180 161.843098
17516 1 2 0.0 10.986866 30.308000 162.605623
17517 1 2 0.0 10.993414 32.312756 162.884916
17518 1 2 0.0 6.477782 30.560503 158.749275
17519 1 2 0.0 8.366628 31.401608 162.508516
17520 1 2 0.0 5.823219 30.974375 160.714435
17521 1 1 0.0 -4.982875 39.456539 163.492537
17522 1 1 0.0 -4.673382 41.385484 165.808374
17523 1 1 0.0 3.476397 40.144868 166.848107
17524 1 1 0.0 -0.434276 42.051693 165.726809
17525 1 2 0.0 -6.930812 38.606601 162.977098
17526 1 2 0.0 -1.505669 42.551070 163.861756
17527 1 2 0.0 -3.065382 38.751194 164.799787
17528 1 2 0.0 1.224947 40.946648 165.938454
17529 1 2 0.0 0.772205 42.895423 166.889007
17530 1 2 0.0 -4.543918 39.883592 161.891128
17531 1 2 0.0 -2.259632 41.667232 166.276609
17532 1 2 0.0 -5.403874 40.560224 164.295792
17533 1 1 0.0 -1.968788 35.691492 163.215232
17534 1 1 0.0 -1.693380 37.557365 165.350006
17535 1 1 0.0 5.802648 36.003193 166.578530
17536 1 1 0.0 2.310928 38.135915 165.256942
17537 1 2 0.0 -3.787230 34.916556 162.730477
17538 1 2 0.0 1.408227 38.791281 163.350678
17539 1 2 0.0 -0.262162 34.823323 164.599288
17540 1 2 0.0 3.786204 36.929141 165.589692
17541 1 2 0.0 3.451571 38.930036 166.329361
17542 1 2 0.0 -1.490553 36.204747 161.610586
17543 1 2 0.0 0.558554 37.752201 165.819819
17544 1 2 0.0 -2.349666 36.809781 163.908438
17545 1 1 0.0 0.715564 31.694901 163.306681
17546 1 1 0.0 0.945634 33.516392 165.259531
17547 1 1 0.0 7.728731 31.668357 166.715632
17548 1 1 0.0 4.668364 34.006342 165.192337
17549 1 2 0.0 -0.950777 30.993038 162.836947
17550 1 2 0.0 3.927168 34.793856 163.261457
17551 1 2 0.0 2.207232 30.679387 164.762726
17552 1 2 0.0 5.957502 32.704891 165.644886
17553 1 2 0.0 5.727287 34.761584 166.183260
17554 1 2 0.0 1.216757 32.274331 161.721608
17555 1 2 0.0 3.014047 33.629377 165.745594
17556 1 2 0.0 0.370922 32.833139 163.889986
17557 1 1 0.0 3.064777 27.462973 163.772929
17558 1 1 0.0 3.249201 29.266024 165.530971
17559 1 1 0.0 9.245710 27.136048 167.268493
17560 1 1 0.0 6.642110 29.665222 165.528732
17561 1 2 0.0 1.572420 26.831387 163.303551
17562 1 2 0.0 6.056671 30.562113 163.588203
17563 1 2 0.0 4.332833 26.312935 165.300967
17564 1 2 0.0 7.735328 28.272035 166.107675
17565 1 2 0.0 7.608804 30.394824 166.441021
17566 1 2 0.0 3.571525 28.087629 162.231534
17567 1 2 0.0 5.111491 29.301422 166.049034
17568 1 2 0.0 2.758991 28.631044 164.239220
17569 1 1 0.0 -8.240021 37.353707 167.038151
17570 1 1 0.0 -8.014587 39.543100 169.295303
17571 1 1 0.0 -0.089551 38.599644 170.402030
17572 1 1 0.0 -3.889304 40.400296 169.225681
17573 1 2 0.0 -10.102251 36.367887 166.527781
17574 1 2 0.0 -4.898625 40.789998 167.353530
17575 1 2 0.0 -6.401909 36.740544 168.363237
17576 1 2 0.0 -2.272861 39.299967 169.472757
17577 1 2 0.0 -2.729002 41.416135 170.360022
17578 1 2 0.0 -7.773371 37.731275 165.440133
17579 1 2 0.0 -5.677038 39.952115 169.770795
17580 1 2 0.0 -8.684795 38.559606 167.808704
17581 1 1 0.0 -5.208277 33.453681 166.818613
17582 1 1 0.0 -5.062347 35.558711 168.934223
17583 1 1 0.0 2.245964 34.310942 170.183313
17584 1 1 0.0 -1.165874 36.319980 168.845974
17585 1 2 0.0 -6.936047 32.551288 166.334773
17586 1 2 0.0 -2.000939 36.857006 166.936889
17587 1 2 0.0 -3.572796 32.687732 168.204975
17588 1 2 0.0 0.287330 35.129419 169.190464
17589 1 2 0.0 -0.092589 37.277692 169.906674
17590 1 2 0.0 -4.692169 33.911922 165.214599
17591 1 2 0.0 -2.885335 35.878904 169.407003
17592 1 2 0.0 -5.637037 34.660398 167.502643
17593 1 1 0.0 -2.437578 29.370346 166.891013
17594 1 1 0.0 -2.378721 31.406647 168.862951
17595 1 1 0.0 4.256809 29.865521 170.294548
17596 1 1 0.0 1.244194 32.066893 168.793765
17597 1 2 0.0 -4.010206 28.551970 166.418097
17598 1 2 0.0 0.574772 32.730288 166.864154
17599 1 2 0.0 -1.007184 28.464373 168.333982
17600 1 2 0.0 2.531884 30.791531 169.235139
17601 1 2 0.0 2.216842 32.974754 169.788323
17602 1 2 0.0 -1.889167 29.890326 165.303852
17603 1 2 0.0 -0.382485 31.640205 169.347890
17604 1 2 0.0 -2.852881 30.582463 167.488063
17605 1 1 0.0 0.067798 25.100698 167.260133
17606 1 1 0.0 0.040656 27.089632 169.076778
17607 1 1 0.0 5.935735 25.259883 170.743103
17608 1 1 0.0 3.344195 27.642852 169.065612
17609 1 2 0.0 -1.329523 24.366287 166.783266
17610 1 2 0.0 2.833005 28.412550 167.130524
17611 1 2 0.0 1.287058 24.065373 168.758837
17612 1 2 0.0 4.457957 26.284795 169.609727
17613 1 2 0.0 4.206947 28.511174 169.997126
17614 1 2 0.0 0.630418 25.662696 165.713794
17615 1 2 0.0 1.835212 27.238138 169.589552
17616 1 2 0.0 -0.331461 26.326390 167.764005
17617 1 1 0.0 -11.475593 35.220150 170.583766
17618 1 1 0.0 -11.328123 37.656392 172.782232
17619 1 1 0.0 -3.639802 37.021903 173.955952
17620 1 1 0.0 -7.319561 38.703971 172.724553
17621 1 2 0.0 -13.252211 34.100918 170.078464
17622 1 2 0.0 -8.263868 38.982865 170.845304
17623 1 2 0.0 -9.721362 34.703515 171.926686
17624 1 2 0.0 -5.750919 37.616033 173.007060
17625 1 2 0.0 -6.204271 39.885288 173.831038
17626 1 2 0.0 -10.980938 35.548851 168.989139
17627 1 2 0.0 -9.068933 38.192469 173.264981
17628 1 2 0.0 -11.939660 36.520560 171.321616
17629 1 1 0.0 -8.443437 31.209705 170.421995
17630 1 1 0.0 -8.419447 33.541048 172.518440
17631 1 1 0.0 -1.308530 32.614154 173.788095
17632 1 1 0.0 -4.632809 34.486148 172.435005
17633 1 2 0.0 -10.081322 30.181358 169.939069
17634 1 2 0.0 -5.398547 34.903519 170.523100
17635 1 2 0.0 -6.882607 30.550871 171.810661
17636 1 2 0.0 -3.206289 33.319788 172.791237
17637 1 2 0.0 -3.624737 35.601473 173.483987
17638 1 2 0.0 -7.889904 31.613759 168.818612
17639 1 2 0.0 -6.318741 33.987309 172.994187
17640 1 2 0.0 -8.915154 32.497369 171.096848
17641 1 1 0.0 -5.603637 27.064186 170.475344
17642 1 1 0.0 -5.707010 29.303206 172.466371
17643 1 1 0.0 0.773570 28.086130 173.873464
17644 1 1 0.0 -2.185013 30.136578 172.395194
17645 1 2 0.0 -7.084028 26.129834 169.999248
17646 1 2 0.0 -2.782220 30.674359 170.466852
17647 1 2 0.0 -4.237029 26.273195 171.905239
17648 1 2 0.0 -0.902975 28.895605 172.825392
17649 1 2 0.0 -1.295518 31.191732 173.393386
17650 1 2 0.0 -5.009217 27.525752 168.886096
17651 1 2 0.0 -3.783562 29.658966 172.950185
17652 1 2 0.0 -6.084236 28.342923 171.086141
17653 1 1 0.0 -2.959345 22.781378 170.747337
17654 1 1 0.0 -3.187625 24.944856 172.622586
17655 1 1 0.0 2.600935 23.435145 174.217713
17656 1 1 0.0 0.026341 25.656647 172.602492
17657 1 2 0.0 -4.263793 21.943713 170.262982
17658 1 2 0.0 -0.411410 26.297475 170.672846
17659 1 2 0.0 -1.790396 21.866755 172.216707
17660 1 2 0.0 1.156848 24.342331 173.111778
17661 1 2 0.0 0.789248 26.659015 173.553231
17662 1 2 0.0 -2.342822 23.281962 169.196053
17663 1 2 0.0 -1.460640 25.209017 173.130070
17664 1 2 0.0 -3.446266 24.057654 171.288790
17665 1 1 0.0 -14.690743 33.057512 174.129380
17666 1 1 0.0 -14.615427 35.727658 176.269161
17667 1 1 0.0 -7.175338 35.413677 177.509875
17668 1 1 0.0 -10.726553 36.965451 176.223424
17669 1 2 0.0 -16.381765 31.807105 173.629147
17670 1 2 0.0 -11.603187 37.132647 174.337078
17671 1 2 0.0 -13.024638 32.641491 175.490135
17672 1 2 0.0 -9.210442 35.897137 176.541363
17673 1 2 0.0 -9.655206 38.306071 177.302054
17674 1 2 0.0 -14.167904 33.338090 172.538144
17675 1 2 0.0 -12.436731 36.390765 176.759167
17676 1 2 0.0 -15.169846 34.445114 174.834529
17677 1 1 0.0 -11.674500 28.959895 174.025377
17678 1 1 0.0 -11.765296 31.505360 176.102656
17679 1 1 0.0 -4.860971 30.913115 177.392878
17680 1 1 0.0 -8.090477 32.635508 176.024037
17681 1 2 0.0 -13.223229 27.807000 173.543365
17682 1 2 0.0 -8.785342 32.932062 174.109312
17683 1 2 0.0 -10.191638 28.412804 175.416348
17684 1 2 0.0 -6.694977 31.500856 176.392009
17685 1 2 0.0 -7.145618 33.902855 177.061300
17686 1 2 0.0 -11.083986 29.310572 172.422625
17687 1 2 0.0 -9.742246 32.078432 176.581371
17688 1 2 0.0 -12.184508 30.321414 174.691054
17689 1 1 0.0 -8.781922 24.775438 174.059675
17690 1 1 0.0 -9.039030 27.205741 176.069791
17691 1 1 0.0 -2.720279 26.328720 177.452380
17692 1 1 0.0 -5.618950 28.214842 175.996622
17693 1 2 0.0 -10.171523 23.725685 173.580398
17694 1 2 0.0 -6.143511 28.625574 174.069550
17695 1 2 0.0 -7.481490 24.104602 175.476496
17696 1 2 0.0 -4.346509 27.016039 176.415646
17697 1 2 0.0 -4.809676 29.412283 176.998450
17698 1 2 0.0 -8.142562 25.179466 172.468340
17699 1 2 0.0 -7.188931 27.685220 176.552481
17700 1 2 0.0 -9.322741 26.113931 174.684219
17701 1 1 0.0 -6.015039 20.502717 174.234541
17702 1 1 0.0 -6.434619 22.830058 176.168393
17703 1 1 0.0 -0.757138 21.658621 177.692323
17704 1 1 0.0 -3.310240 23.704407 176.139371
17705 1 2 0.0 -7.228776 19.561542 173.742697
17706 1 2 0.0 -3.675236 24.214659 174.215167
17707 1 2 0.0 -4.897864 19.714510 175.674577
17708 1 2 0.0 -2.166540 22.441888 176.613830
17709 1 2 0.0 -2.643314 24.836400 177.109335
17710 1 2 0.0 -5.346303 20.942829 172.678312
17711 1 2 0.0 -4.774979 23.212165 176.670588
17712 1 2 0.0 -6.584139 21.822941 174.813574
17713 1 1 0.0 -17.886216 30.866852 177.674994
17714 1 1 0.0 -17.877415 33.758370 179.756091
17715 1 1 0.0 -10.696818 33.776331 181.063798
17716 1 1 0.0 -14.111289 35.186562 179.722296
17717 1 2 0.0 -19.491589 29.487337 177.179830
17718 1 2 0.0 -14.917792 35.241354 177.828852
17719 1 2 0.0 -16.312313 30.555362 179.053584
17720 1 2 0.0 -12.652242 34.144813 180.075666
17721 1 2 0.0 -13.082883 36.680621 180.773070
17722 1 2 0.0 -17.335124 31.100166 176.087149
17723 1 2 0.0 -15.781356 34.548610 180.253353
17724 1 2 0.0 -18.376238 32.334574 178.347441
17725 1 1 0.0 -14.901614 26.704463 177.628759
17726 1 1 0.0 -15.100286 29.452278 179.686873
17727 1 1 0.0 -8.411452 29.208013 180.997660
17728 1 1 0.0 -11.539279 30.768787 179.613069
17729 1 2 0.0 -16.361882 25.428359 177.147661
17730 1 2 0.0 -12.161829 30.943474 177.695523
17731 1 2 0.0 -13.499917 26.273575 179.022035
17732 1 2 0.0 -10.178951 29.673031 179.992782
17733 1 2 0.0 -10.655728 32.182828 180.638613
17734 1 2 0.0 -14.274567 27.002569 176.026638
17735 1 2 0.0 -13.156228 30.152932 180.168555
17736 1 2 0.0 -15.445412 28.132997 178.285259
17737 1 1 0.0 -11.971990 22.503468 177.644006
17738 1 1 0.0 -12.374650 25.114043 179.673210
17739 1 1 0.0 -6.224262 24.592306 181.031296
17740 1 1 0.0 -9.057411 26.301313 179.598051
17741 1 2 0.0 -13.272237 21.338927 177.161549
17742 1 2 0.0 -9.508899 26.583600 177.672248
17743 1 2 0.0 -10.740050 21.957790 179.047752
17744 1 2 0.0 -7.798335 25.152115 180.005899
17745 1 2 0.0 -8.325551 27.636248 180.603513
17746 1 2 0.0 -11.288650 22.850710 176.050585
17747 1 2 0.0 -10.598429 25.718680 180.154776
17748 1 2 0.0 -12.568142 23.895109 178.282297
17749 1 1 0.0 -9.098244 18.263235 177.721745
17750 1 1 0.0 -9.699670 20.744187 179.714200
17751 1 1 0.0 -4.137440 19.928151 181.166934
17752 1 1 0.0 -6.664737 21.784662 179.676251
17753 1 2 0.0 -10.223454 17.218433 177.222413
17754 1 2 0.0 -6.957566 22.162598 177.757488
17755 1 2 0.0 -8.034280 17.606991 179.132446
17756 1 2 0.0 -5.511228 20.581624 180.115882
17757 1 2 0.0 -6.090081 23.042024 180.665440
17758 1 2 0.0 -8.378774 18.643573 176.160571
17759 1 2 0.0 -8.107099 21.246348 180.211106
17760 1 2 0.0 -9.744252 19.621028 178.338359
17761 1 1 0.0 -21.062412 28.648740 181.220609
17762 1 1 0.0 -21.114567 31.749295 183.243020
17763 1 1 0.0 -14.204640 32.110690 184.617720
17764 1 1 0.0 -17.474365 33.368390 183.221168
17765 1 2 0.0 -22.582022 27.142063 180.730514
17766 1 2 0.0 -18.208428 33.310223 181.320626
17767 1 2 0.0 -19.584689 28.445598 182.617033
17768 1 2 0.0 -16.076806 32.359980 183.609969
17769 1 2 0.0 -16.487947 35.010220 184.244085
17770 1 2 0.0 -20.483093 28.835760 179.636154
17771 1 2 0.0 -19.103318 32.666900 183.747539
17772 1 2 0.0 -21.559306 30.189634 181.860353
17773 1 1 0.0 -18.124861 24.443522 181.232141
17774 1 1 0.0 -18.424626 27.382132 183.271090
17775 1 1 0.0 -11.960028 27.498965 184.602443
17776 1 1 0.0 -14.979453 28.886418 183.202101
17777 1 2 0.0 -19.497336 23.045511 180.751957
17778 1 2 0.0 -15.528318 28.938269 181.281735
17779 1 2 0.0 -16.807458 24.133207 182.627722
17780 1 2 0.0 -13.658340 27.836557 183.593554
17781 1 2 0.0 -14.155367 30.441985 184.215927
17782 1 2 0.0 -17.461734 24.689870 179.630652
17783 1 2 0.0 -16.560897 28.211179 183.755739
17784 1 2 0.0 -18.698034 25.932364 181.879464
17785 1 1 0.0 -15.173599 20.247934 181.228338
17786 1 1 0.0 -15.713802 23.028003 183.276630
17787 1 1 0.0 -9.738094 22.876294 184.610213
17788 1 1 0.0 -12.500275 24.395770 183.199480
17789 1 2 0.0 -16.385944 18.969260 180.742700
17790 1 2 0.0 -12.878263 24.548232 181.274945
17791 1 2 0.0 -14.012432 19.832334 182.619009
17792 1 2 0.0 -11.258227 23.303404 183.596152
17793 1 2 0.0 -11.843097 25.863533 184.208576
17794 1 2 0.0 -14.447163 20.539045 179.632829
17795 1 2 0.0 -14.011965 23.759188 183.757072
17796 1 2 0.0 -15.820302 21.686255 181.880375
17797 1 1 0.0 -12.208400 16.062132 181.208949
17798 1 1 0.0 -12.982437 18.686697 183.260008
17799 1 1 0.0 -7.539344 18.242432 184.641544
17800 1 1 0.0 -10.036668 19.896538 183.213130
17801 1 2 0.0 -13.247316 14.913715 180.702129
17802 1 2 0.0 -10.257843 20.140365 181.299810
17803 1 2 0.0 -11.199078 15.543323 182.590316
17804 1 2 0.0 -8.876633 18.760434 183.617933
17805 1 2 0.0 -9.550661 21.275104 184.221545
17806 1 2 0.0 -11.439507 16.383194 179.642831
17807 1 2 0.0 -11.456605 19.310879 183.751625
17808 1 2 0.0 -12.926164 17.451268 181.863144
17809 1 1 0.0 -24.219421 26.403305 184.766223
17810 1 1 0.0 -24.326967 29.700567 186.729949
17811 1 1 0.0 -17.698975 30.417108 188.171643
17812 1 1 0.0 -20.816024 31.511372 186.720040
17813 1 2 0.0 -25.653096 24.771321 184.281197
17814 1 2 0.0 -21.475436 31.339822 184.812400
17815 1 2 0.0 -22.841828 26.312290 186.180483
17816 1 2 0.0 -19.484336 30.543016 187.144272
17817 1 2 0.0 -19.870668 33.295407 187.715101
17818 1 2 0.0 -23.611991 26.545122 183.185159
17819 1 2 0.0 -22.402766 30.745891 187.241725
17820 1 2 0.0 -24.719148 28.010439 185.373265
17821 1 1 0.0 -21.344259 22.177100 184.835522
17822 1 1 0.0 -21.738348 25.294978 186.855306
17823 1 1 0.0 -15.506723 25.786020 188.207226
17824 1 1 0.0 -18.411095 26.988574 186.791133
17825 1 2 0.0 -22.629596 20.658462 184.356253
17826 1 2 0.0 -18.884953 26.916686 184.867946
17827 1 2 0.0 -20.114265 21.991704 186.233408
17828 1 2 0.0 -17.133197 25.991536 187.194327
17829 1 2 0.0 -17.644660 28.680577 187.793240
17830 1 2 0.0 -20.645521 22.372520 183.234665
17831 1 2 0.0 -19.956315 26.253276 187.342923
17832 1 2 0.0 -21.942408 23.719567 185.473670
17833 1 1 0.0 -18.386695 18.008759 184.812669
17834 1 1 0.0 -19.056474 20.947602 186.880050
17835 1 1 0.0 -13.261650 21.180428 188.189129
17836 1 1 0.0 -15.947494 22.498124 186.800908
17837 1 2 0.0 -19.512624 16.616658 184.323850
17838 1 2 0.0 -16.251545 22.519377 184.877643
17839 1 2 0.0 -17.298583 17.728152 186.190266
17840 1 2 0.0 -14.726090 21.469729 187.186405
17841 1 2 0.0 -15.362293 24.094099 187.813639
17842 1 2 0.0 -17.617984 18.244310 183.215073
17843 1 2 0.0 -17.429512 21.806696 187.359367
17844 1 2 0.0 -19.079193 19.487327 185.478453
17845 1 1 0.0 -15.345379 13.899228 184.696153
17846 1 1 0.0 -16.282860 16.657492 186.805815
17847 1 1 0.0 -10.962578 16.600902 188.116154
17848 1 1 0.0 -13.425839 18.039682 186.750010
17849 1 2 0.0 -16.300315 12.647327 184.181844
17850 1 2 0.0 -13.575811 18.147534 184.842131
17851 1 2 0.0 -14.392149 13.523337 186.048186
17852 1 2 0.0 -12.262512 16.977862 187.119985
17853 1 2 0.0 -13.024887 19.535310 187.777650
17854 1 2 0.0 -14.528237 14.161326 183.125090
17855 1 2 0.0 -14.823386 17.405562 187.292143
17856 1 2 0.0 -16.129786 15.313527 185.387929
17857 1 1 0.0 -27.357033 24.130245 188.311838
17858 1 1 0.0 -27.514304 27.611689 190.216878
17859 1 1 0.0 -21.179780 28.695497 191.725565
17860 1 1 0.0 -24.136168 29.615331 190.218911
17861 1 2 0.0 -28.704534 22.374748 187.831880
17862 1 2 0.0 -24.718783 29.330098 188.304174
17863 1 2 0.0 -26.083546 24.155159 189.743932
17864 1 2 0.0 -22.874764 28.693794 190.678575
17865 1 2 0.0 -23.230964 31.536017 191.186117
17866 1 2 0.0 -26.721699 24.228086 186.734164
17867 1 2 0.0 -25.679488 28.785217 190.735911
17868 1 2 0.0 -27.855493 25.796588 188.886177
17869 1 1 0.0 -24.559765 19.905135 188.438904
17870 1 1 0.0 -25.041322 23.190604 190.439523
17871 1 1 0.0 -19.051530 24.069165 191.812008
17872 1 1 0.0 -21.834167 25.075185 190.380165
17873 1 2 0.0 -25.758616 18.267151 187.960549
17874 1 2 0.0 -22.231719 24.878701 188.454158
17875 1 2 0.0 -23.420329 19.849052 189.839095
17876 1 2 0.0 -20.603505 24.137934 190.795099
17877 1 2 0.0 -21.123568 26.898526 191.370553
17878 1 2 0.0 -23.825904 20.050489 186.838678
17879 1 2 0.0 -23.342394 24.279075 190.930107
17880 1 2 0.0 -25.178438 21.494463 189.067875
17881 1 1 0.0 -21.611406 15.786123 188.397000
17882 1 1 0.0 -22.402710 18.872910 190.483470
17883 1 1 0.0 -16.794961 19.504771 191.768045
17884 1 1 0.0 -19.399087 20.608412 190.402337
17885 1 2 0.0 -22.652460 14.281363 187.905001
17886 1 2 0.0 -19.628750 20.497042 188.480341
17887 1 2 0.0 -20.598667 15.645497 189.761522
17888 1 2 0.0 -18.201957 19.651149 190.776659
17889 1 2 0.0 -18.883145 22.327957 191.418702
17890 1 2 0.0 -20.801190 15.966612 186.797318
17891 1 2 0.0 -20.851107 19.861272 190.961663
17892 1 2 0.0 -22.344892 17.298443 189.076530
17893 1 1 0.0 -18.509480 11.774947 188.183357
17894 1 1 0.0 -19.601161 14.656926 190.351622
17895 1 1 0.0 -14.407209 15.003700 191.590764
17896 1 1 0.0 -16.832328 16.214238 190.286889
17897 1 2 0.0 -19.382869 10.419816 187.661560
17898 1 2 0.0 -16.911494 16.184147 188.384452
17899 1 2 0.0 -17.613830 11.547555 189.506056
17900 1 2 0.0 -15.668946 15.234061 190.622037
17901 1 2 0.0 -16.512811 17.822742 191.333754
17902 1 2 0.0 -17.645139 11.978212 186.607349
17903 1 2 0.0 -18.207602 15.530677 190.832661
17904 1 2 0.0 -19.355369 13.208177 188.912713
17905 1 1 0.0 -30.474713 21.828803 191.857452
17906 1 1 0.0 -30.675853 25.481500 193.703808
17907 1 1 0.0 -24.646798 26.945322 195.279488
17908 1 1 0.0 -27.434355 27.679465 193.717783
17909 1 2 0.0 -31.735730 19.951548 191.382563
17910 1 2 0.0 -27.938061 27.280368 191.795948
17911 1 2 0.0 -29.309408 21.973528 193.307381
17912 1 2 0.0 -26.247748 26.811669 194.212878
17913 1 2 0.0 -26.568393 29.731171 194.657132
17914 1 2 0.0 -29.811786 21.884060 190.283169
17915 1 2 0.0 -28.932906 26.783864 194.230097
17916 1 2 0.0 -30.967682 23.547111 192.399089
17917 1 1 0.0 -27.771272 17.627476 192.042286
17918 1 1 0.0 -28.333235 21.068513 194.023740
17919 1 1 0.0 -22.594414 22.348325 195.416791
17920 1 1 0.0 -25.248491 23.145932 193.969197
17921 1 2 0.0 -28.884297 15.871447 191.564845
17922 1 2 0.0 -25.568446 22.824031 192.040369
17923 1 2 0.0 -26.725628 17.705220 193.444782
17924 1 2 0.0 -24.069172 22.275579 194.395872
17925 1 2 0.0 -24.591887 25.095426 194.947866
17926 1 2 0.0 -27.002809 17.723673 190.442691
17927 1 2 0.0 -26.718897 22.288158 194.517291
17928 1 2 0.0 -28.405891 19.256708 192.662080
17929 1 1 0.0 -24.848049 13.580481 191.981331
17930 1 1 0.0 -25.752613 16.804094 194.086889
17931 1 1 0.0 -20.338214 17.849711 195.346961
17932 1 1 0.0 -22.855143 18.726796 194.003765
17933 1 2 0.0 -25.805859 11.963911 191.486151
17934 1 2 0.0 -23.009946 18.481341 192.083038
17935 1 2 0.0 -23.913079 13.584979 193.332779
17936 1 2 0.0 -21.685986 17.847967 194.366912
17937 1 2 0.0 -22.405686 20.565172 195.023765
17938 1 2 0.0 -23.997059 13.706333 190.379562
17939 1 2 0.0 -24.276854 17.923095 194.563958
17940 1 2 0.0 -25.617591 15.119882 192.674608
17941 1 1 0.0 -21.701445 9.690347 191.670561
17942 1 1 0.0 -22.937856 12.685828 193.897430
17943 1 1 0.0 -17.873647 13.451675 195.065374
17944 1 1 0.0 -20.256493 14.420852 193.823769
17945 1 2 0.0 -22.495887 8.232382 191.141275
17946 1 2 0.0 -20.265200 14.250713 191.926774
17947 1 2 0.0 -20.864931 9.617227 192.963926
17948 1 2 0.0 -19.096347 13.529809 194.124088
17949 1 2 0.0 -20.014701 16.137939 194.889859
17950 1 2 0.0 -20.790846 9.834722 190.089608
17951 1 2 0.0 -21.609698 13.687002 194.373179
17952 1 2 0.0 -22.603530 11.136126 192.437498
17953 1 1 0.0 -33.571566 19.497700 195.403066
17954 1 1 0.0 -33.810412 23.308071 197.190737
17955 1 1 0.0 -28.099529 25.165551 198.833410
17956 1 1 0.0 -30.709757 25.702275 197.216655
17957 1 2 0.0 -34.745698 17.500422 194.933246
17958 1 2 0.0 -31.132447 25.189270 195.287722
17959 1 2 0.0 -32.518684 19.766270 196.870830
17960 1 2 0.0 -29.602642 24.895423 197.747181
17961 1 2 0.0 -29.882116 27.879203 198.128148
17962 1 2 0.0 -32.881476 19.511976 193.832175
17963 1 2 0.0 -32.162016 24.740084 197.724283
17964 1 2 0.0 -34.054614 21.260380 195.912001
17965 1 1 0.0 -30.978599 15.343866 195.645668
17966 1 1 0.0 -31.613572 18.927876 197.607956
17967 1 1 0.0 -26.135306 20.623358 199.021573
17968 1 1 0.0 -28.653740 21.200218 197.558229
17969 1 2 0.0 -32.006476 13.471136 195.169141
17970 1 2 0.0 -28.894791 20.752106 195.626580
17971 1 2 0.0 -30.030127 15.560152 197.050468
17972 1 2 0.0 -27.530026 20.404147 197.996644
17973 1 2 0.0 -28.049228 23.270505 198.525179
17974 1 2 0.0 -30.176097 15.391881 194.046704
17975 1 2 0.0 -30.085411 20.279806 198.104475
17976 1 2 0.0 -31.624374 17.005724 196.256286
17977 1 1 0.0 -28.097163 11.392598 195.565663
17978 1 1 0.0 -29.106355 14.741426 197.690309
17979 1 1 0.0 -23.891767 16.215989 198.925877
17980 1 1 0.0 -26.315832 16.853581 197.605194
17981 1 2 0.0 -28.973483 9.665170 195.067302
17982 1 2 0.0 -26.395270 16.472500 195.685736
17983 1 2 0.0 -27.242479 11.547617 196.904036
17984 1 2 0.0 -25.178480 16.060751 197.957165
17985 1 2 0.0 -25.929978 18.805868 198.628828
17986 1 2 0.0 -27.206092 11.464162 193.961806
17987 1 2 0.0 -27.706932 15.992476 198.166254
17988 1 2 0.0 -28.897609 12.952116 196.272686
17989 1 1 0.0 -24.922530 7.647215 195.157765
17990 1 1 0.0 -26.293804 10.745573 197.443237
17991 1 1 0.0 -21.362678 11.946456 198.539984
17992 1 1 0.0 -23.698997 12.660730 197.360648
17993 1 2 0.0 -25.640857 6.086978 194.620991
17994 1 2 0.0 -23.637542 12.348253 195.469095
17995 1 2 0.0 -24.146807 7.734446 196.421795
17996 1 2 0.0 -22.545490 11.866566 197.626140
17997 1 2 0.0 -23.531071 14.481918 198.445964
17998 1 2 0.0 -23.966498 7.732423 193.571868
17999 1 2 0.0 -25.030444 11.875879 197.913697
18000 1 2 0.0 -25.875299 9.098894 195.962283
18001 1 1 0.0 -36.646246 17.135022 198.948681
18002 1 1 0.0 -36.916188 21.088533 0.677666
18003 1 1 0.0 -31.537198 23.354574 2.387333
18004 1 1 0.0 -33.961095 23.681438 0.715527
18005 1 2 0.0 -37.732977 15.019450 198.483930
18006 1 2 0.0 -34.300640 23.054638 198.779496
18007 1 2 0.0 -35.710283 17.531704 0.434279
18008 1 2 0.0 -32.938443 22.943162 1.281484
18009 1 2 0.0 -33.170825 25.977512 1.599164
18010 1 2 0.0 -35.929576 17.110193 197.381180
18011 1 2 0.0 -35.365306 22.651236 1.218469
18012 1 2 0.0 -37.114637 18.933963 199.424913
18013 1 1 0.0 -34.181479 13.053920 199.249049
18014 1 1 0.0 -34.881564 16.767463 1.192173
18015 1 1 0.0 -29.674096 18.894037 2.626356
18016 1 1 0.0 -32.049403 19.237117 1.147261
18017 1 2 0.0 -35.124912 11.065901 198.773437
18018 1 2 0.0 -32.210211 18.662023 199.212792
18019 1 2 0.0 -33.333775 13.413767 0.656155
18020 1 2 0.0 -30.985802 18.523134 1.597417
18021 1 2 0.0 -31.494987 21.422559 2.102492
18022 1 2 0.0 -33.345557 13.054824 197.650717
18023 1 2 0.0 -33.441316 18.252935 1.691659
18024 1 2 0.0 -34.833301 14.740647 199.850491
18025 1 1 0.0 -31.359552 9.223619 199.149994
18026 1 1 0.0 -32.464189 12.685315 1.293729
18027 1 1 0.0 -27.456182 14.604768 2.504793
18028 1 1 0.0 -29.781413 14.989240 1.206623
18029 1 2 0.0 -32.156309 7.386427 198.648452
18030 1 2 0.0 -29.784938 14.470878 199.288434
18031 1 2 0.0 -30.587850 9.534930 0.475292
18032 1 2 0.0 -28.679909 14.290388 1.547419
18033 1 2 0.0 -29.456118 17.050236 2.233891
18034 1 2 0.0 -30.429058 9.241157 197.544051
18035 1 2 0.0 -31.141610 14.069886 1.768550
18036 1 2 0.0 -32.185425 10.795851 199.870764
18037 1 1 0.0 -28.174614 5.648228 198.644969
18038 1 1 0.0 -29.670283 8.838209 0.989045
18039 1 1 0.0 -24.875533 10.490591 2.014594
18040 1 1 0.0 -27.160872 10.935741 0.897528
18041 1 2 0.0 -28.819974 3.986495 198.100707
18042 1 2 0.0 -27.029496 10.478388 199.011416
18043 1 2 0.0 -27.461477 5.902334 199.879665
18044 1 2 0.0 -26.017583 10.246611 1.128192
18045 1 2 0.0 -27.062719 12.856266 2.002068
18046 1 2 0.0 -27.173846 5.673723 197.054127
18047 1 2 0.0 -28.471000 10.099334 1.454215
18048 1 2 0.0 -29.172218 7.098757 199.487068
18049 1 1 0.0 -39.696824 14.738021 2.494295
18050 1 1 0.0 -39.990611 18.818770 4.164596
18051 1 1 0.0 -34.958668 21.510039 5.941255
18052 1 1 0.0 -37.186507 21.613578 4.214398
18053 1 2 0.0 -40.695480 12.505885 2.034613
18054 1 2 0.0 -37.440731 20.873300 2.271270
18055 1 2 0.0 -38.882646 15.267416 3.997728
18056 1 2 0.0 -36.253688 20.952130 4.815787
18057 1 2 0.0 -36.432615 24.022314 5.070179
18058 1 2 0.0 -38.954361 14.676340 0.930185
18059 1 2 0.0 -38.540598 20.513519 4.712656
18060 1 2 0.0 -40.145388 16.564372 2.937825
18061 1 1 0.0 -37.379522 10.757088 2.852431
18062 1 1 0.0 -38.136109 14.585508 4.776390
18063 1 1 0.0 -33.210627 17.160036 6.231138
18064 1 1 0.0 -35.434738 17.255284 4.736293
18065 1 2 0.0 -38.239261 8.655290 2.377733
18066 1 2 0.0 -35.513911 16.552461 2.799003
18067 1 2 0.0 -36.636495 11.265950 4.261842
18068 1 2 0.0 -34.436109 16.631807 5.198190
18069 1 2 0.0 -34.928280 19.549835 5.679805
18070 1 2 0.0 -36.510883 10.712081 1.254730
18071 1 2 0.0 -36.785715 16.205983 5.278843
18072 1 2 0.0 -38.031834 12.460239 3.444696
18073 1 1 0.0 -34.636372 7.075190 2.734325
18074 1 1 0.0 -35.826482 10.636347 4.897149
18075 1 1 0.0 -31.032275 13.017744 6.083710
18076 1 1 0.0 -33.252265 13.134458 4.808051
18077 1 2 0.0 -35.355737 5.129523 2.229603
18078 1 2 0.0 -33.179266 12.477001 2.891132
18079 1 2 0.0 -33.950603 7.549100 4.046549
18080 1 2 0.0 -32.190958 12.538168 5.137672
18081 1 2 0.0 -32.984246 15.298556 5.838954
18082 1 2 0.0 -33.667071 7.038851 1.126295
18083 1 2 0.0 -34.581275 12.156003 5.370845
18084 1 2 0.0 -35.481724 8.652097 3.468842
18085 1 1 0.0 -31.460394 3.697228 2.132173
18086 1 1 0.0 -33.069126 6.966670 4.534852
18087 1 1 0.0 -28.414006 9.087800 5.489205
18088 1 1 0.0 -30.643616 9.248603 4.434408
18089 1 2 0.0 -32.036382 1.935066 1.580422
18090 1 2 0.0 -30.442491 8.643494 2.553738
18091 1 2 0.0 -30.811838 4.125367 3.337535
18092 1 2 0.0 -29.514382 8.673256 4.630243
18093 1 2 0.0 -30.610808 11.263296 5.558173
18094 1 2 0.0 -30.415421 3.662106 0.536386
18095 1 2 0.0 -31.933037 8.360282 4.994733
18096 1 2 0.0 -32.496498 5.138973 3.011852
18097 1 1 0.0 -42.720553 12.302784 6.039909
18098 1 1 0.0 -43.030026 16.492921 7.651525
18099 1 1 0.0 -38.362322 19.628596 9.495178
18100 1 1 0.0 -40.383342 19.493887 7.713270
18101 1 2 0.0 -43.630230 9.955813 5.585296
18102 1 2 0.0 -40.549998 18.640732 5.763044
18103 1 2 0.0 -42.033548 12.969970 7.561178
18104 1 2 0.0 -39.546295 18.918400 8.350090
18105 1 2 0.0 -39.664774 22.008214 8.541195
18106 1 2 0.0 -41.953376 12.207037 4.479190
18107 1 2 0.0 -41.684793 18.321523 8.206842
18108 1 2 0.0 -43.143497 14.146638 6.450737
18109 1 1 0.0 -40.572179 8.452585 6.455813
18110 1 1 0.0 -41.375639 12.379499 8.360606
18111 1 1 0.0 -36.744673 15.420887 9.835921
18112 1 1 0.0 -38.808690 15.252805 8.325325
18113 1 2 0.0 -41.349031 6.238655 5.982029
18114 1 2 0.0 -38.804754 14.421531 6.385215
18115 1 2 0.0 -39.938181 9.116534 7.867529
18116 1 2 0.0 -37.880394 14.729121 8.798962
18117 1 2 0.0 -38.347852 17.649836 9.257118
18118 1 2 0.0 -39.671639 8.363052 4.858743
18119 1 2 0.0 -40.117336 14.136726 8.866027
18120 1 2 0.0 -41.218775 10.162734 7.038902
18121 1 1 0.0 -37.929267 4.949655 6.318656
18122 1 1 0.0 -39.193754 8.595355 8.500568
18123 1 1 0.0 -34.621215 11.457332 9.662626
18124 1 1 0.0 -36.728926 11.290214 8.409480
18125 1 2 0.0 -38.573760 2.897082 5.810754
18126 1 2 0.0 -36.578705 10.491619 6.493829
18127 1 2 0.0 -37.332748 5.593231 7.617806
18128 1 2 0.0 -35.712599 10.805929 8.727925
18129 1 2 0.0 -36.514562 13.551227 9.444017
18130 1 2 0.0 -36.921716 4.859423 4.708539
18131 1 2 0.0 -38.026481 10.251790 8.973141
18132 1 2 0.0 -38.787482 6.522294 7.066920
18133 1 1 0.0 -34.783713 1.799686 5.619377
18134 1 1 0.0 -36.492942 5.135138 8.080659
18135 1 1 0.0 -31.980655 7.743381 8.963815
18136 1 1 0.0 -34.149363 7.603186 7.971287
18137 1 2 0.0 -35.294559 -0.061415 5.060138
18138 1 2 0.0 -33.878566 6.846958 6.096059
18139 1 2 0.0 -34.202019 2.409920 6.795405
18140 1 2 0.0 -33.038389 7.151222 8.132295
18141 1 2 0.0 -34.176996 9.706303 9.114278
18142 1 2 0.0 -33.694829 1.702532 4.018645
18143 1 2 0.0 -35.418933 6.662876 8.535251
18144 1 2 0.0 -35.851287 3.224187 6.536637
18145 1 1 0.0 7.264243 40.921384 166.843474
18146 1 1 0.0 8.010498 42.450644 169.217996
18147 1 1 0.0 15.848921 39.163229 170.190737
18148 1 1 0.0 12.360804 41.978462 169.124489
18149 1 2 0.0 5.125046 40.663962 166.322966
18150 1 2 0.0 11.387713 42.814794 167.266534
18151 1 2 0.0 9.039242 39.718885 168.132890
18152 1 2 0.0 13.780922 40.538056 169.300702
18153 1 2 0.0 13.728263 42.357711 170.314543
18154 1 2 0.0 7.768909 41.298708 165.238675
18155 1 2 0.0 10.473200 42.066311 169.678974
18156 1 2 0.0 7.094508 41.975720 167.679432
18157 1 1 0.0 9.397799 36.761883 166.508402
18158 1 1 0.0 10.147857 38.248305 168.662341
18159 1 1 0.0 17.245189 34.796828 169.870299
18160 1 1 0.0 14.247179 37.752294 168.564461
18161 1 2 0.0 7.393642 36.541733 166.022733
18162 1 2 0.0 13.467376 38.714610 166.661018
18163 1 2 0.0 10.922845 35.437975 167.890153
18164 1 2 0.0 15.443582 36.245565 168.885471
18165 1 2 0.0 15.563369 38.101516 169.648600
18166 1 2 0.0 9.949765 37.223132 164.903125
18167 1 2 0.0 12.433989 37.816932 169.129187
18168 1 2 0.0 9.297421 37.830249 167.210784
18169 1 1 0.0 11.082102 32.414795 166.618902
18170 1 1 0.0 11.826049 33.882827 168.552663
18171 1 1 0.0 18.127554 30.308445 170.033267
18172 1 1 0.0 15.627406 33.376619 168.487460
18173 1 2 0.0 9.235982 32.222298 166.152348
18174 1 2 0.0 15.029520 34.440053 166.555311
18175 1 2 0.0 12.355515 30.988481 168.088021
18176 1 2 0.0 16.599903 31.812490 168.951184
18177 1 2 0.0 16.877442 33.712590 169.474749
18178 1 2 0.0 11.661705 32.942671 165.035915
18179 1 2 0.0 13.914686 33.417146 169.039850
18180 1 2 0.0 11.047304 33.504274 167.188460
18181 1 1 0.0 12.309789 27.877045 167.182276
18182 1 1 0.0 13.052536 29.356862 168.881715
18183 1 1 0.0 18.484541 25.695357 170.690435
18184 1 1 0.0 16.506807 28.853008 168.888405
18185 1 2 0.0 10.643563 27.701722 166.720387
18186 1 2 0.0 16.081373 29.993559 166.942433
18187 1 2 0.0 13.323787 26.365367 168.739649
18188 1 2 0.0 17.245323 27.237564 169.502175
18189 1 2 0.0 17.682682 29.194043 169.781468
18190 1 2 0.0 12.895939 28.453484 165.645827
18191 1 2 0.0 14.921439 28.868878 169.405068
18192 1 2 0.0 12.345651 28.998392 167.610987
18193 1 1 0.0 3.615612 39.605238 170.389089
18194 1 1 0.0 4.332535 41.422553 172.704925
18195 1 1 0.0 12.025080 38.458981 173.744659
18196 1 1 0.0 8.615748 41.161904 172.623361
18197 1 2 0.0 1.530504 39.193920 169.873649
18198 1 2 0.0 7.676755 41.879924 170.758308
18199 1 2 0.0 5.336646 38.504179 171.696339
18200 1 2 0.0 9.998628 39.726011 172.835005
18201 1 2 0.0 9.975399 41.726550 173.785558
18202 1 2 0.0 4.136110 39.927944 168.787680
18203 1 2 0.0 6.750420 41.178830 173.173161
18204 1 2 0.0 3.441715 40.773621 171.192344
18205 1 1 0.0 5.749857 35.280276 170.111783
18206 1 1 0.0 6.419933 37.043321 172.246558
18207 1 1 0.0 13.406607 33.914061 173.475082
18208 1 1 0.0 10.454994 36.747537 172.153493
18209 1 2 0.0 3.807341 34.914369 169.627029
18210 1 2 0.0 9.714282 37.581635 170.247229
18211 1 2 0.0 7.229952 34.065530 171.495840
18212 1 2 0.0 11.636358 35.251836 172.486244
18213 1 2 0.0 11.739682 37.277887 173.225913
18214 1 2 0.0 6.327245 35.678725 168.507138
18215 1 2 0.0 8.661103 36.749503 172.716371
18216 1 2 0.0 5.618282 36.454298 170.804989
18217 1 1 0.0 7.512301 30.800067 170.203233
18218 1 1 0.0 8.128559 32.529514 172.156083
18219 1 1 0.0 14.355798 29.266520 173.612184
18220 1 1 0.0 11.869579 32.207732 172.088888
18221 1 2 0.0 5.734039 30.472826 169.733498
18222 1 2 0.0 11.315004 33.136169 170.158008
18223 1 2 0.0 8.750790 29.487630 171.659277
18224 1 2 0.0 12.848803 30.659582 172.541437
18225 1 2 0.0 13.066099 32.717680 173.079812
18226 1 2 0.0 8.126337 31.258209 168.618159
18227 1 2 0.0 10.172902 32.195210 172.642146
18228 1 2 0.0 7.420405 31.985782 170.786537
18229 1 1 0.0 8.896852 26.162067 170.669480
18230 1 1 0.0 9.464566 27.883319 172.427522
18231 1 1 0.0 14.862999 24.514067 174.165045
18232 1 1 0.0 12.863967 27.543808 172.425284
18233 1 2 0.0 7.303613 25.866061 170.200102
18234 1 2 0.0 12.485020 28.545582 170.484755
18235 1 2 0.0 9.888037 24.766322 172.197519
18236 1 2 0.0 13.632132 25.948184 173.004227
18237 1 2 0.0 13.964903 28.048542 173.337573
18238 1 2 0.0 9.526035 26.663184 169.128086
18239 1 2 0.0 11.290927 27.517551 172.945586
18240 1 2 0.0 8.849316 27.368564 171.135772
18241 1 1 0.0 -0.017432 38.251759 173.934703
18242 1 1 0.0 0.673387 40.341504 176.191855
18243 1 1 0.0 8.210326 37.716457 177.298582
18244 1 1 0.0 4.886495 40.291845 176.122233
18245 1 2 0.0 -2.048046 37.689311 173.424332
18246 1 2 0.0 3.984546 40.889410 174.250082
18247 1 2 0.0 1.645895 37.257792 175.259788
18248 1 2 0.0 6.228608 38.869754 176.369309
18249 1 2 0.0 6.238046 41.034503 177.256574
18250 1 2 0.0 0.519475 38.520184 172.336685
18251 1 2 0.0 3.044212 40.238452 176.667347
18252 1 2 0.0 -0.192574 39.525078 174.705256
18253 1 1 0.0 2.105042 33.791178 173.715165
18254 1 1 0.0 2.700080 35.815623 175.830775
18255 1 1 0.0 9.569293 33.025955 177.079864
18256 1 1 0.0 6.669105 35.721468 175.742525
18257 1 2 0.0 0.223678 33.281302 173.231325
18258 1 2 0.0 5.969008 36.425452 173.833441
18259 1 2 0.0 3.537630 32.691557 175.101526
18260 1 2 0.0 7.832399 34.246346 176.087016
18261 1 2 0.0 7.923178 36.426064 176.803226
18262 1 2 0.0 2.707592 34.127758 172.111151
18263 1 2 0.0 4.895026 35.660336 176.303555
18264 1 2 0.0 1.945715 35.061854 174.399195
18265 1 1 0.0 3.933168 29.207690 173.787564
18266 1 1 0.0 4.428393 31.183732 175.759503
18267 1 1 0.0 10.577491 28.252193 177.191100
18268 1 1 0.0 8.108539 31.049722 175.690317
18269 1 2 0.0 2.221380 28.746516 173.314649
18270 1 2 0.0 7.597379 31.841513 173.760706
18271 1 2 0.0 5.135362 28.015407 175.230534
18272 1 2 0.0 9.091959 29.527362 176.131691
18273 1 2 0.0 9.253611 31.727267 176.684875
18274 1 2 0.0 4.580537 29.597622 172.200404
18275 1 2 0.0 6.428166 30.982697 176.244441
18276 1 2 0.0 3.788143 30.480747 174.384615
18277 1 1 0.0 5.462121 24.499283 174.156684
18278 1 1 0.0 5.863175 26.447551 175.973330
18279 1 1 0.0 11.227089 23.393313 177.639655
18280 1 1 0.0 9.208406 26.277674 175.962164
18281 1 2 0.0 3.939592 24.082425 173.679818
18282 1 2 0.0 8.874630 27.139268 174.027076
18283 1 2 0.0 6.430311 23.226059 175.655389
18284 1 2 0.0 10.004187 24.711942 176.506278
18285 1 2 0.0 10.237651 26.940229 176.893678
18286 1 2 0.0 6.132400 24.927195 172.610345
18287 1 2 0.0 7.647700 26.206809 176.486104
18288 1 2 0.0 5.335684 25.782148 174.660557
18289 1 1 0.0 -3.636009 36.863636 177.480317
18290 1 1 0.0 -2.968267 39.211218 179.678784
18291 1 1 0.0 4.403910 36.938802 180.852504
18292 1 1 0.0 1.171776 39.372583 179.621104
18293 1 2 0.0 -5.611693 36.152491 176.975016
18294 1 2 0.0 0.309500 39.847955 177.741856
18295 1 2 0.0 -2.033853 35.981971 178.823237
18296 1 2 0.0 2.469869 37.972869 179.903612
18297 1 2 0.0 2.514939 40.286527 180.727590
18298 1 2 0.0 -3.082257 37.078315 175.885690
18299 1 2 0.0 -0.646654 39.249103 180.161533
18300 1 2 0.0 -3.809677 38.233403 178.218168
18301 1 1 0.0 -1.536870 32.295129 177.318547
18302 1 1 0.0 -1.012271 34.566809 179.414991
18303 1 1 0.0 5.733142 32.132949 180.684647
18304 1 1 0.0 2.889006 34.675799 179.331557
18305 1 2 0.0 -3.357526 31.642921 176.835621
18306 1 2 0.0 2.230893 35.248022 177.419652
18307 1 2 0.0 -0.154161 31.316165 178.707213
18308 1 2 0.0 4.031442 33.230047 179.687789
18309 1 2 0.0 4.113271 35.548342 180.380539
18310 1 2 0.0 -0.909418 32.570743 175.715164
18311 1 2 0.0 1.135254 34.551047 179.890739
18312 1 2 0.0 -1.720749 33.654093 177.993400
18313 1 1 0.0 0.345373 27.636056 177.371896
18314 1 1 0.0 0.725739 29.844952 179.362923
18315 1 1 0.0 6.793172 27.263197 180.770016
18316 1 1 0.0 4.344545 29.901715 179.291746
18317 1 2 0.0 -1.301265 27.041790 176.895800
18318 1 2 0.0 3.876907 30.555304 177.363404
18319 1 2 0.0 1.509991 26.569778 178.801791
18320 1 2 0.0 5.329837 28.414155 179.721944
18321 1 2 0.0 5.440071 30.740985 180.289938
18322 1 2 0.0 1.025119 27.959049 175.782648
18323 1 2 0.0 2.680697 29.778909 179.846737
18324 1 2 0.0 0.150901 28.988212 177.982693
18325 1 1 0.0 2.007166 22.884934 177.643888
18326 1 1 0.0 2.249306 25.046905 179.519137
18327 1 1 0.0 7.577990 22.328121 181.114265
18328 1 1 0.0 5.541146 25.051146 179.499043
18329 1 2 0.0 0.553142 22.347271 177.159534
18330 1 2 0.0 5.251388 25.771096 177.569397
18331 1 2 0.0 2.952169 21.740404 179.113259
18332 1 2 0.0 6.362683 23.524533 180.008330
18333 1 2 0.0 6.501696 25.866077 180.449782
18334 1 2 0.0 2.716886 23.241280 176.092605
18335 1 2 0.0 3.992703 24.933638 180.026622
18336 1 2 0.0 1.805990 24.236045 178.185341
18337 1 1 0.0 -7.240894 35.442722 181.025932
18338 1 1 0.0 -6.593336 38.034250 183.165713
18339 1 1 0.0 0.605311 36.128211 184.406427
18340 1 1 0.0 -2.529293 38.407111 183.119976
18341 1 2 0.0 -9.161181 34.585067 180.525699
18342 1 2 0.0 -3.349490 38.758848 181.233630
18343 1 2 0.0 -5.703174 34.678263 182.386687
18344 1 2 0.0 -1.278283 37.037855 183.437915
18345 1 2 0.0 -1.194800 39.486081 184.198606
18346 1 2 0.0 -6.669963 35.604345 179.434695
18347 1 2 0.0 -4.323029 38.213498 183.655719
18348 1 2 0.0 -7.410502 36.900875 181.731080
18349 1 1 0.0 -5.176035 30.792501 180.921929
18350 1 1 0.0 -4.717508 33.297973 182.999208
18351 1 1 0.0 1.898081 31.235348 184.289429
18352 1 1 0.0 -0.885657 33.611722 182.920589
18353 1 2 0.0 -6.936395 29.999491 180.439917
18354 1 2 0.0 -1.500525 34.050718 181.005864
18355 1 2 0.0 -3.845450 29.939429 182.312900
18356 1 2 0.0 0.233300 32.203605 183.288561
18357 1 2 0.0 0.309554 34.646322 183.957852
18358 1 2 0.0 -4.523942 31.008037 179.319177
18359 1 2 0.0 -2.618563 33.422750 183.477923
18360 1 2 0.0 -5.381433 32.231825 181.587605
18361 1 1 0.0 -3.250619 26.084056 180.956227
18362 1 1 0.0 -2.979273 28.512810 182.966342
18363 1 1 0.0 3.003217 26.297949 184.348932
18364 1 1 0.0 0.577775 28.763103 182.893174
18365 1 2 0.0 -4.833397 25.357569 180.476950
18366 1 2 0.0 0.153774 29.276997 180.966102
18367 1 2 0.0 -2.124800 25.149349 182.373047
18368 1 2 0.0 1.562760 27.318789 183.312197
18369 1 2 0.0 1.625543 29.758578 183.895001
18370 1 2 0.0 -2.539352 26.341194 179.364892
18371 1 2 0.0 -1.069354 28.583362 183.449033
18372 1 2 0.0 -3.491058 27.507516 181.580771
18373 1 1 0.0 -1.466932 21.316431 181.131092
18374 1 1 0.0 -1.376393 23.679556 183.064945
18375 1 1 0.0 3.916527 21.315017 184.588875
18376 1 1 0.0 1.862898 23.861815 183.035923
18377 1 2 0.0 -2.854618 20.658177 180.639249
18378 1 2 0.0 1.616125 24.438601 181.111719
18379 1 2 0.0 -0.545318 20.306492 182.571128
18380 1 2 0.0 2.708455 22.382952 183.510382
18381 1 2 0.0 2.757578 24.823973 184.005887
18382 1 2 0.0 -0.719220 21.602494 179.574864
18383 1 2 0.0 0.326587 23.695957 183.567140
18384 1 2 0.0 -1.738918 22.728128 181.710126
18385 1 1 0.0 -10.832586 33.990210 184.571546
18386 1 1 0.0 -10.202399 36.812233 186.652642
18387 1 1 0.0 -3.185820 35.286159 187.960349
18388 1 1 0.0 -6.217304 37.397430 186.618848
18389 1 2 0.0 -12.696980 32.988055 184.076382
18390 1 2 0.0 -6.993173 37.624315 184.725404
18391 1 2 0.0 -9.362440 33.347659 185.950136
18392 1 2 0.0 -5.016314 36.066385 186.972218
18393 1 2 0.0 -4.891764 38.635482 187.669621
18394 1 2 0.0 -10.244222 34.099600 182.983701
18395 1 2 0.0 -7.985466 37.133408 187.149905
18396 1 2 0.0 -10.995634 35.528957 185.243992
18397 1 1 0.0 -8.812553 29.283534 184.525310
18398 1 1 0.0 -8.415881 32.009815 186.583425
18399 1 1 0.0 -1.935938 30.333360 187.894212
18400 1 1 0.0 -4.655117 32.530034 186.509621
18401 1 2 0.0 -10.513005 28.351180 184.044213
18402 1 2 0.0 -5.225560 32.834466 184.592075
18403 1 2 0.0 -7.536254 28.561397 185.918587
18404 1 2 0.0 -3.562149 31.167465 186.889334
18405 1 2 0.0 -3.488247 33.721078 187.535165
18406 1 2 0.0 -8.136081 29.439874 182.923190
18407 1 2 0.0 -6.366653 32.276173 187.065107
18408 1 2 0.0 -9.036544 30.795570 185.181811
18409 1 1 0.0 -6.854511 24.550973 184.540558
18410 1 1 0.0 -6.686561 27.187074 186.569762
18411 1 1 0.0 -0.792124 25.355384 187.927848
18412 1 1 0.0 -3.191649 27.633478 186.494603
18413 1 2 0.0 -8.374701 23.693174 184.058101
18414 1 2 0.0 -3.571898 28.006223 184.568799
18415 1 2 0.0 -5.768678 23.753222 185.944304
18416 1 2 0.0 -2.209053 26.240484 186.902451
18417 1 2 0.0 -2.189928 28.779876 187.500064
18418 1 2 0.0 -6.112501 24.743200 182.947137
18419 1 2 0.0 -4.821888 27.395741 187.051328
18420 1 2 0.0 -7.137564 26.038233 185.178849
18421 1 1 0.0 -4.959476 19.792104 184.618296
18422 1 1 0.0 -5.013510 22.344342 186.610752
18423 1 1 0.0 0.243254 20.351670 188.063485
18424 1 1 0.0 -1.825861 22.708070 186.572802
18425 1 2 0.0 -6.282981 19.013616 184.118965
18426 1 2 0.0 -2.030599 23.140120 184.654040
18427 1 2 0.0 -4.061460 18.922482 186.028998
18428 1 2 0.0 -0.957938 21.285188 187.012433
18429 1 2 0.0 -0.994345 23.812502 187.561992
18430 1 2 0.0 -4.175066 20.008886 183.057123
18431 1 2 0.0 -3.350222 22.492407 187.107658
18432 1 2 0.0 -5.298495 21.257026 185.234911
18433 1 1 0.0 -14.411352 32.506744 188.117161
18434 1 1 0.0 -13.795761 35.546022 190.139572
18435 1 1 0.0 -6.969694 34.413538 191.514272
18436 1 1 0.0 -9.892607 36.344727 190.117720
18437 1 2 0.0 -16.219326 31.361964 187.627065
18438 1 2 0.0 -10.622012 36.445722 188.217178
18439 1 2 0.0 -13.011847 31.990685 189.513585
18440 1 2 0.0 -8.744500 35.059459 190.506521
18441 1 2 0.0 -8.576306 37.736122 191.140637
18442 1 2 0.0 -13.805373 32.564856 186.532706
18443 1 2 0.0 -11.634275 36.009815 190.644091
18444 1 2 0.0 -14.565382 34.118431 188.756904
18445 1 1 0.0 -12.446477 27.768356 188.128692
18446 1 1 0.0 -12.107519 30.702702 190.167641
18447 1 1 0.0 -5.768945 29.427107 191.498995
18448 1 1 0.0 -8.419515 31.431209 190.098653
18449 1 2 0.0 -14.087395 26.698071 187.648509
18450 1 2 0.0 -8.944402 31.599838 188.178286
18451 1 2 0.0 -11.226583 27.182093 189.524273
18452 1 2 0.0 -7.354979 30.121893 190.490106
18453 1 2 0.0 -7.280296 32.773254 191.112478
18454 1 2 0.0 -11.745897 27.866391 186.527203
18455 1 2 0.0 -10.109143 31.111721 190.652291
18456 1 2 0.0 -12.686193 29.345605 188.776016
18457 1 1 0.0 -10.466141 23.036424 188.124889
18458 1 1 0.0 -10.396082 25.867624 190.173182
18459 1 1 0.0 -4.592696 24.434861 191.506764
18460 1 1 0.0 -6.963656 26.512600 190.096031
18461 1 2 0.0 -11.925020 22.048263 187.639251
18462 1 2 0.0 -7.300032 26.742754 188.171497
18463 1 2 0.0 -9.421463 22.380924 189.515561
18464 1 2 0.0 -5.985473 25.178770 190.492704
18465 1 2 0.0 -6.006317 27.804774 191.105127
18466 1 2 0.0 -9.694109 23.164567 186.529381
18467 1 2 0.0 -8.576850 26.215869 190.653624
18468 1 2 0.0 -10.788529 24.580139 188.776927
18469 1 1 0.0 -8.470090 18.311053 188.105500
18470 1 1 0.0 -8.661827 21.040652 190.156559
18471 1 1 0.0 -3.441495 19.436670 191.538095
18472 1 1 0.0 -5.524849 21.588954 190.109682
18473 1 2 0.0 -9.731593 17.412822 187.598680
18474 1 2 0.0 -5.688437 21.874627 188.196361
18475 1 2 0.0 -7.595895 17.587400 189.486868
18476 1 2 0.0 -4.636164 20.230039 190.514485
18477 1 2 0.0 -4.753854 22.830813 191.118096
18478 1 2 0.0 -7.650155 18.459320 186.539382
18479 1 2 0.0 -7.037488 21.322232 190.648176
18480 1 2 0.0 -8.872451 19.822011 188.759696
18481 1 1 0.0 -17.977255 30.992470 191.662775
18482 1 1 0.0 -17.373472 34.235763 193.626501
18483 1 1 0.0 -10.746404 33.510729 195.068194
18484 1 1 0.0 -13.555344 35.249483 193.616591
18485 1 2 0.0 -19.728239 29.706839 191.177748
18486 1 2 0.0 -14.236217 35.223699 191.708952
18487 1 2 0.0 -16.651434 30.607441 193.077034
18488 1 2 0.0 -12.462958 34.017493 194.040824
18489 1 2 0.0 -12.248575 36.788585 194.611653
18490 1 2 0.0 -17.353539 31.000392 190.081711
18491 1 2 0.0 -15.269544 34.843002 194.138277
18492 1 2 0.0 -18.119811 32.669456 192.269817
18493 1 1 0.0 -16.077821 26.246997 191.732074
18494 1 1 0.0 -15.792445 29.376698 193.751858
18495 1 1 0.0 -9.600952 28.516644 195.103777
18496 1 1 0.0 -12.178908 30.315437 193.687685
18497 1 2 0.0 -17.659570 25.040173 191.252805
18498 1 2 0.0 -12.657141 30.347095 191.764498
18499 1 2 0.0 -14.916439 25.801522 193.129960
18500 1 2 0.0 -11.145220 29.067000 194.090879
18501 1 2 0.0 -11.066661 31.803121 194.689791
18502 1 2 0.0 -15.353409 26.287639 190.131216
18503 1 2 0.0 -13.846069 29.929507 194.239475
18504 1 2 0.0 -16.330401 27.881986 192.370221
18505 1 1 0.0 -14.085474 21.540320 191.709221
18506 1 1 0.0 -14.107829 24.554437 193.776602
18507 1 1 0.0 -8.398434 23.536104 195.085680
18508 1 1 0.0 -10.738219 25.400370 193.697460
18509 1 2 0.0 -15.484339 20.422807 191.220402
18510 1 2 0.0 -11.030592 25.486488 191.774195
18511 1 2 0.0 -13.083123 21.032361 193.086817
18512 1 2 0.0 -9.766445 24.133453 194.082957
18513 1 2 0.0 -9.823612 26.833231 194.710190
18514 1 2 0.0 -13.284098 21.605114 190.111625
18515 1 2 0.0 -12.334224 25.043698 194.255919
18516 1 2 0.0 -14.443932 23.133187 192.375004
18517 1 1 0.0 -11.998690 16.873075 191.592704
18518 1 1 0.0 -12.321308 19.768383 193.702367
18519 1 1 0.0 -7.137576 18.569412 195.012706
18520 1 1 0.0 -9.233952 20.504083 193.646561
18521 1 2 0.0 -13.200422 15.855725 191.078396
18522 1 2 0.0 -9.357232 20.641653 191.738683
18523 1 2 0.0 -11.148551 16.301056 192.944738
18524 1 2 0.0 -8.326083 19.217006 194.016537
18525 1 2 0.0 -8.520859 21.878551 194.674201
18526 1 2 0.0 -11.144308 16.953384 190.021641
18527 1 2 0.0 -10.735142 20.185219 194.188694
18528 1 2 0.0 -12.460725 18.422932 192.284480
18529 1 1 0.0 -21.530151 29.447047 195.208389
18530 1 1 0.0 -20.935338 32.880905 197.113430
18531 1 1 0.0 -14.515925 32.577639 198.622117
18532 1 1 0.0 -17.205457 34.111504 197.115463
18533 1 2 0.0 -23.223529 28.022265 194.728432
18534 1 2 0.0 -17.835768 33.958184 195.200726
18535 1 2 0.0 -20.281082 29.197616 196.640483
18536 1 2 0.0 -16.171648 32.940347 197.575127
18537 1 2 0.0 -15.908526 35.792693 198.082668
18538 1 2 0.0 -20.888638 29.406022 193.630716
18539 1 2 0.0 -18.891145 33.632566 197.632463
18540 1 2 0.0 -21.658743 31.181586 195.782729
18541 1 1 0.0 -19.706555 24.719388 195.335456
18542 1 1 0.0 -19.470575 28.031565 197.336075
18543 1 1 0.0 -13.431957 27.601957 198.708560
18544 1 1 0.0 -15.933272 29.182642 197.276717
18545 1 2 0.0 -21.229497 23.377416 194.857101
18546 1 2 0.0 -16.363768 29.076213 195.350709
18547 1 2 0.0 -18.605815 24.419671 196.735647
18548 1 2 0.0 -14.932864 28.002747 197.691651
18549 1 2 0.0 -14.847323 30.810596 198.267104
18550 1 2 0.0 -18.958605 24.703585 193.735229
18551 1 2 0.0 -17.577378 28.729368 197.826659
18552 1 2 0.0 -19.969106 26.404554 195.964427
18553 1 1 0.0 -17.712593 20.062866 195.293552
18554 1 1 0.0 -17.821829 23.247593 197.380021
18555 1 1 0.0 -12.209355 22.659181 198.664597
18556 1 1 0.0 -14.515347 24.296829 197.298888
18557 1 2 0.0 -19.052787 18.817082 194.801552
18558 1 2 0.0 -14.763582 24.237433 195.376892
18559 1 2 0.0 -16.753762 19.707818 196.658074
18560 1 2 0.0 -13.551989 23.104599 197.673210
18561 1 2 0.0 -13.641817 25.865260 198.315253
18562 1 2 0.0 -16.882520 20.064962 193.693869
18563 1 2 0.0 -16.094033 23.879298 197.858215
18564 1 2 0.0 -18.103827 21.697506 195.973082
18565 1 1 0.0 -15.545473 15.478646 195.079909
18566 1 1 0.0 -15.992091 18.527926 197.248174
18567 1 1 0.0 -10.845025 17.750046 198.487316
18568 1 1 0.0 -12.953216 19.453612 197.183441
18569 1 2 0.0 -16.689756 14.342950 194.558111
18570 1 2 0.0 -13.037000 19.441242 195.281004
18571 1 2 0.0 -14.719646 15.064032 196.402608
18572 1 2 0.0 -12.027742 18.246258 197.518588
18573 1 2 0.0 -12.295388 20.955823 198.230306
18574 1 2 0.0 -14.657644 15.491352 193.503901
18575 1 2 0.0 -14.443282 19.081674 197.729213
18576 1 2 0.0 -16.063484 17.060209 195.809265
18577 1 1 0.0 -25.069684 27.869620 198.754004
18578 1 1 0.0 -24.480900 31.480158 0.600360
18579 1 1 0.0 -18.278121 31.613688 2.176039
18580 1 1 0.0 -20.842688 32.929910 0.614335
18581 1 2 0.0 -26.704773 26.307336 198.279115
18582 1 2 0.0 -21.420411 32.648426 198.692500
18583 1 2 0.0 -23.900512 27.760455 0.203933
18584 1 2 0.0 -19.870374 31.827317 1.109430
18585 1 2 0.0 -19.555916 34.747492 1.553684
18586 1 2 0.0 -24.410377 27.781076 197.179721
18587 1 2 0.0 -22.498731 32.377392 1.126649
18588 1 2 0.0 -25.181743 29.653729 199.295641
18589 1 1 0.0 -23.332608 23.185358 198.938838
18590 1 1 0.0 -23.141712 26.666751 0.920291
18591 1 1 0.0 -17.261940 26.682965 2.313342
18592 1 1 0.0 -19.682504 28.032473 0.865749
18593 1 2 0.0 -24.797107 21.709651 198.461397
18594 1 2 0.0 -20.064178 27.786878 198.936921
18595 1 2 0.0 -22.294699 23.036501 0.341333
18596 1 2 0.0 -18.717857 26.928949 1.292424
18597 1 2 0.0 -18.622167 29.795238 1.844418
18598 1 2 0.0 -22.561432 23.114109 197.339242
18599 1 2 0.0 -21.302929 27.510846 1.413843
18600 1 2 0.0 -23.602154 24.912924 199.558632
18601 1 1 0.0 -21.347714 18.604573 198.877883
18602 1 1 0.0 -21.538148 21.947274 0.983441
18603 1 1 0.0 -16.025558 21.804510 2.243513
18604 1 1 0.0 -18.295095 23.202154 0.900317
18605 1 2 0.0 -22.630646 17.231698 198.382703
18606 1 2 0.0 -18.499045 22.995716 198.979590
18607 1 2 0.0 -20.433636 18.407975 0.229331
18608 1 2 0.0 -17.342194 22.092537 1.263464
18609 1 2 0.0 -17.460950 24.900930 1.920316
18610 1 2 0.0 -20.489564 18.544544 197.276114
18611 1 2 0.0 -19.856339 22.722869 1.460510
18612 1 2 0.0 -21.768338 20.273412 199.571160
18613 1 1 0.0 -19.110940 14.128961 198.567113
18614 1 1 0.0 -19.674503 17.320201 0.793982
18615 1 1 0.0 -14.564059 16.979489 1.961926
18616 1 1 0.0 -16.682850 18.438248 0.720321
18617 1 2 0.0 -20.200227 12.875864 198.037827
18618 1 2 0.0 -16.727929 18.273958 198.823325
18619 1 2 0.0 -18.309701 13.877725 199.860477
18620 1 2 0.0 -15.741376 17.318639 1.020640
18621 1 2 0.0 -16.077589 20.063212 1.786411
18622 1 2 0.0 -18.190593 14.074209 196.986160
18623 1 2 0.0 -18.162175 18.012454 1.269731
18624 1 2 0.0 -19.681134 15.734860 199.334050
18625 1 1 0.0 -28.595252 26.258749 2.299618
18626 1 1 0.0 -28.009397 30.031381 4.087289
18627 1 1 0.0 -22.032728 30.617763 5.729962
18628 1 1 0.0 -24.466551 31.703060 4.113207
18629 1 2 0.0 -30.171289 24.560570 1.829798
18630 1 2 0.0 -24.989639 31.292915 2.184274
18631 1 2 0.0 -27.509251 26.294702 3.767382
18632 1 2 0.0 -23.558769 30.677075 4.643733
18633 1 2 0.0 -23.190284 33.651174 5.024700
18634 1 2 0.0 -27.918227 26.124342 0.728726
18635 1 2 0.0 -26.091699 31.075558 4.620835
18636 1 2 0.0 -28.688082 28.084059 2.808553
18637 1 1 0.0 -26.955859 21.644618 2.542219
18638 1 1 0.0 -26.805530 25.281336 4.504508
18639 1 1 0.0 -21.090864 25.759513 5.918125
18640 1 1 0.0 -23.426412 26.864276 4.454781
18641 1 2 0.0 -28.362287 20.036635 2.065693
18642 1 2 0.0 -23.758158 26.478459 2.523132
18643 1 2 0.0 -25.983067 21.651954 3.947020
18644 1 2 0.0 -22.500101 25.845251 4.893196
18645 1 2 0.0 -22.390982 28.756209 5.421731
18646 1 2 0.0 -26.161797 21.518997 0.943256
18647 1 2 0.0 -25.022472 26.273149 5.001027
18648 1 2 0.0 -27.229285 23.406445 3.152837
18649 1 1 0.0 -24.991195 17.166304 2.462214
18650 1 1 0.0 -25.256893 20.653785 4.586861
18651 1 1 0.0 -19.847233 20.972892 5.822429
18652 1 1 0.0 -22.077561 22.116680 4.501746
18653 1 2 0.0 -26.218373 15.667646 1.963854
18654 1 2 0.0 -22.237063 21.761585 2.582288
18655 1 2 0.0 -24.123169 17.133967 3.800587
18656 1 2 0.0 -21.137235 21.097888 4.853717
18657 1 2 0.0 -21.281044 23.940376 5.525379
18658 1 2 0.0 -24.105572 17.044641 0.858358
18659 1 2 0.0 -23.621250 21.574752 5.062806
18660 1 2 0.0 -25.437677 18.861435 3.169238
18661 1 1 0.0 -22.695930 12.826035 2.054317
18662 1 1 0.0 -23.369089 16.146738 4.339789
18663 1 1 0.0 -18.295096 16.259499 5.436536
18664 1 1 0.0 -20.423245 17.459313 4.257200
18665 1 2 0.0 -23.732867 11.456694 1.517543
18666 1 2 0.0 -20.430400 17.140930 2.365647
18667 1 2 0.0 -21.919590 12.744469 3.318347
18668 1 2 0.0 -19.467428 16.435746 4.522692
18669 1 2 0.0 -19.867744 19.201823 5.342515
18670 1 2 0.0 -21.743933 12.703732 0.468419
18671 1 2 0.0 -21.892283 16.979033 4.810249
18672 1 2 0.0 -23.314355 14.448592 2.858835
18673 1 1 0.0 -32.105954 24.612275 5.845232
18674 1 1 0.0 -31.519696 28.531384 7.574218
18675 1 1 0.0 -25.779333 29.588123 9.283885
18676 1 1 0.0 -28.076295 30.428411 7.612078
18677 1 2 0.0 -33.622063 22.779778 5.380481
18678 1 2 0.0 -28.542644 29.889257 5.676048
18679 1 2 0.0 -31.106599 24.798478 7.330831
18680 1 2 0.0 -27.236258 29.487556 8.178036
18681 1 2 0.0 -26.810912 32.500919 8.495715
18682 1 2 0.0 -31.411377 24.433963 4.277731
18683 1 2 0.0 -29.669139 29.724159 8.115021
18684 1 2 0.0 -32.176675 26.469847 6.321465
18685 1 1 0.0 -30.576128 20.096734 6.145601
18686 1 1 0.0 -30.461543 23.873954 8.088725
18687 1 1 0.0 -24.918673 24.831359 9.522908
18688 1 1 0.0 -27.164694 25.677038 8.043812
18689 1 2 0.0 -31.924870 18.358005 5.669989
18690 1 2 0.0 -27.445371 25.149959 6.109344
18691 1 2 0.0 -29.670886 20.265937 7.552707
18692 1 2 0.0 -26.279445 24.751105 8.493969
18693 1 2 0.0 -26.153434 27.692203 8.999044
18694 1 2 0.0 -29.759555 19.917919 4.547269
18695 1 2 0.0 -28.735635 25.015086 8.588211
18696 1 2 0.0 -30.850115 21.884149 6.747043
18697 1 1 0.0 -28.643578 15.749353 6.046546
18698 1 1 0.0 -28.978227 19.367581 8.190281
18699 1 1 0.0 -23.674678 20.165584 9.401345
18700 1 1 0.0 -25.862897 21.040923 8.103174
18701 1 2 0.0 -29.816649 14.126392 5.545004
18702 1 2 0.0 -25.977772 20.535438 6.184986
18703 1 2 0.0 -27.822995 15.887493 7.371844
18704 1 2 0.0 -24.937378 20.121619 8.443970
18705 1 2 0.0 -25.102154 22.983806 9.130442
18706 1 2 0.0 -27.731068 15.566452 4.440602
18707 1 2 0.0 -27.388927 20.435466 8.665101
18708 1 2 0.0 -29.112159 17.462365 6.767316
18709 1 1 0.0 -26.301705 11.572885 5.541521
18710 1 1 0.0 -27.076655 15.009810 7.885596
18711 1 1 0.0 -22.038789 15.592831 8.911146
18712 1 1 0.0 -24.175005 16.518854 7.794080
18713 1 2 0.0 -27.289201 10.088735 4.997258
18714 1 2 0.0 -24.145018 16.043952 5.907968
18715 1 2 0.0 -25.550615 11.667747 6.776217
18716 1 2 0.0 -23.206588 15.600062 8.024744
18717 1 2 0.0 -23.666290 18.373378 8.898620
18718 1 2 0.0 -25.318853 11.382648 3.950678
18719 1 2 0.0 -25.634306 15.983640 8.350767
18720 1 2 0.0 -26.964165 13.203956 6.383619
18721 1 1 0.0 -35.600496 22.927098 9.390847
18722 1 1 0.0 -35.010174 26.975597 11.061147
18723 1 1 0.0 -29.517331 28.522227 12.837807
18724 1 1 0.0 -31.670827 29.102264 11.110950
18725 1 2 0.0 -37.055646 20.961830 8.931165
18726 1 2 0.0 -32.078245 28.433945 9.167822
18727 1 2 0.0 -34.691549 23.269092 10.894280
18728 1 2 0.0 -30.902008 28.255752 11.712339
18729 1 2 0.0 -30.416754 31.292621 11.966731
18730 1 2 0.0 -34.888651 22.707251 7.826737
18731 1 2 0.0 -33.229740 28.319014 11.609207
18732 1 2 0.0 -35.645960 24.807178 9.834377
18733 1 1 0.0 -34.193154 18.541086 9.748983
18734 1 1 0.0 -34.109055 22.442643 11.672941
18735 1 1 0.0 -28.745280 23.898147 13.127690
18736 1 1 0.0 -30.896918 24.469287 11.632844
18737 1 2 0.0 -35.484617 16.673245 9.274285
18738 1 2 0.0 -31.125325 23.799914 9.695555
18739 1 2 0.0 -33.358108 18.878322 11.158394
18740 1 2 0.0 -30.055665 23.645710 12.094741
18741 1 2 0.0 -29.909040 26.601319 12.576357
18742 1 2 0.0 -33.354498 18.310399 8.151282
18743 1 2 0.0 -32.441878 23.734937 12.175395
18744 1 2 0.0 -34.464088 20.344645 10.341248
18745 1 1 0.0 -32.305636 14.355573 9.630877
18746 1 1 0.0 -32.702379 18.089310 11.793700
18747 1 1 0.0 -27.508328 19.384418 12.980261
18748 1 1 0.0 -29.651325 19.975636 11.704603
18749 1 2 0.0 -33.426443 12.610036 9.126155
18750 1 2 0.0 -29.721367 19.317857 9.787683
18751 1 2 0.0 -31.534023 14.670983 10.943101
18752 1 2 0.0 -28.743016 19.165137 12.034224
18753 1 2 0.0 -28.924355 22.031522 12.735505
18754 1 2 0.0 -31.366809 14.111711 8.022847
18755 1 2 0.0 -31.159603 19.305754 12.267397
18756 1 2 0.0 -32.792236 16.077338 10.365394
18757 1 1 0.0 -29.930073 10.373844 9.028725
18758 1 1 0.0 -30.798360 13.912678 11.431404
18759 1 1 0.0 -25.796094 14.983504 12.385756
18760 1 1 0.0 -27.939009 15.619847 11.330959
18761 1 2 0.0 -30.871407 8.776701 8.476974
18762 1 2 0.0 -27.872667 14.985650 9.450289
18763 1 2 0.0 -29.204643 10.652553 10.234087
18764 1 2 0.0 -26.959858 14.815200 11.526795
18765 1 2 0.0 -27.473869 17.580386 12.454725
18766 1 2 0.0 -28.917080 10.114905 7.432938
18767 1 2 0.0 -29.389247 15.029483 11.891285
18768 1 2 0.0 -30.632020 12.004613 9.908404
18769 1 1 0.0 -39.077035 21.198808 12.936461
18770 1 1 0.0 -38.478517 25.357510 14.548077
18771 1 1 0.0 -33.245864 27.416455 16.391730
18772 1 1 0.0 -35.248593 27.719355 14.609822
18773 1 2 0.0 -40.469974 19.102261 12.481848
18774 1 2 0.0 -35.594755 26.921973 12.659596
18775 1 2 0.0 -38.262667 21.702710 14.457729
18776 1 2 0.0 -34.554828 26.977383 15.246642
18777 1 2 0.0 -34.006319 30.020428 15.437747
18778 1 2 0.0 -38.348378 20.940379 11.375742
18779 1 2 0.0 -36.771640 26.854174 15.103393
18780 1 2 0.0 -39.093717 23.090474 13.347289
18781 1 1 0.0 -37.806568 16.976787 13.352365
18782 1 1 0.0 -37.747073 20.984612 15.257158
18783 1 1 0.0 -32.570568 22.959373 16.732473
18784 1 1 0.0 -34.622462 23.238924 15.221876
18785 1 2 0.0 -39.041187 14.981618 12.878581
18786 1 2 0.0 -34.797317 22.426238 13.281766
18787 1 2 0.0 -37.044663 17.488923 14.764080
18788 1 2 0.0 -33.828446 22.527927 15.695514
18789 1 2 0.0 -33.657107 25.480847 16.153670
18790 1 2 0.0 -36.946330 16.695758 11.755295
18791 1 2 0.0 -36.140437 22.430258 15.762579
18792 1 2 0.0 -38.070416 18.785953 13.935453
18793 1 1 0.0 -35.978472 12.987606 13.215208
18794 1 1 0.0 -36.429678 16.819898 15.397120
18795 1 1 0.0 -31.348803 18.632003 16.559177
18796 1 1 0.0 -33.443162 18.921889 15.306031
18797 1 2 0.0 -37.049140 11.121567 12.707305
18798 1 2 0.0 -33.468127 18.109671 13.390381
18799 1 2 0.0 -35.257549 13.487902 14.514358
18800 1 2 0.0 -32.554703 18.230446 15.624477
18801 1 2 0.0 -32.747758 21.083958 16.340568
18802 1 2 0.0 -35.013875 12.682890 11.605091
18803 1 2 0.0 -34.933612 18.186678 15.869692
18804 1 2 0.0 -36.478552 14.707969 13.963471
18805 1 1 0.0 -33.583610 9.235080 12.515929
18806 1 1 0.0 -34.535854 12.859985 14.977211
18807 1 1 0.0 -29.568367 14.437241 15.860366
18808 1 1 0.0 -31.716510 14.766532 14.867839
18809 1 2 0.0 -34.482594 7.527308 11.956689
18810 1 2 0.0 -31.614610 13.969770 12.992611
18811 1 2 0.0 -32.884333 9.706001 13.691956
18812 1 2 0.0 -30.728668 14.086307 15.028847
18813 1 2 0.0 -31.291388 16.826419 16.010830
18814 1 2 0.0 -32.541068 8.906119 10.915197
18815 1 2 0.0 -33.158536 14.121125 15.431803
18816 1 2 0.0 -34.319999 10.855774 13.433189
18817 1 1 0.0 15.891297 38.403067 173.740026
18818 1 1 0.0 16.948851 39.736152 176.114548
18819 1 1 0.0 23.897318 34.840565 177.087288
18820 1 1 0.0 21.095944 38.339822 176.021041
18821 1 2 0.0 13.746775 38.611527 173.219518
18822 1 2 0.0 20.325390 39.365786 174.163086
18823 1 2 0.0 17.366296 36.847110 175.029442
18824 1 2 0.0 22.173216 36.627808 176.197254
18825 1 2 0.0 22.512960 38.416240 177.211095
18826 1 2 0.0 16.465278 38.663082 172.135227
18827 1 2 0.0 19.271356 38.831395 176.575526
18828 1 2 0.0 15.952182 39.469241 174.575984
18829 1 1 0.0 17.080802 33.882162 173.404953
18830 1 1 0.0 18.132861 35.172591 175.558893
18831 1 1 0.0 24.322295 30.276092 176.766851
18832 1 1 0.0 22.029715 33.806944 175.461013
18833 1 2 0.0 15.076175 34.097994 172.919285
18834 1 2 0.0 21.475013 34.914396 173.557570
18835 1 2 0.0 18.285592 32.261366 174.786705
18836 1 2 0.0 22.874245 32.078251 175.782023
18837 1 2 0.0 23.390206 33.865059 176.545152
18838 1 2 0.0 17.719018 34.213970 171.799677
18839 1 2 0.0 20.272812 34.259853 176.025739
18840 1 2 0.0 17.212438 34.947128 174.107336
18841 1 1 0.0 17.791231 29.274631 173.515454
18842 1 1 0.0 18.833369 30.548414 175.449215
18843 1 1 0.0 24.219161 25.702962 176.929819
18844 1 1 0.0 22.437032 29.236861 175.384012
18845 1 2 0.0 15.946892 29.483496 173.048900
18846 1 2 0.0 22.081731 30.403961 173.451862
18847 1 2 0.0 18.728257 27.607917 174.984572
18848 1 2 0.0 23.050552 27.500243 175.847736
18849 1 2 0.0 23.730067 29.296258 176.371301
18850 1 2 0.0 18.470762 29.665568 171.932467
18851 1 2 0.0 20.773066 29.644626 175.936402
18852 1 2 0.0 17.991453 30.346119 174.085011
18853 1 1 0.0 18.014733 24.579055 174.078828
18854 1 1 0.0 19.058233 25.864606 175.778267
18855 1 1 0.0 23.576124 21.120984 177.586986
18856 1 1 0.0 22.323431 24.629965 175.784956
18857 1 2 0.0 16.349774 24.766020 173.616939
18858 1 2 0.0 22.153128 25.835307 173.838985
18859 1 2 0.0 18.680059 22.884739 175.636201
18860 1 2 0.0 22.697409 22.893530 176.398727
18861 1 2 0.0 23.545127 24.710249 176.678020
18862 1 2 0.0 18.711098 25.016012 172.542379
18863 1 2 0.0 20.778539 24.986272 176.301619
18864 1 2 0.0 18.290813 25.666475 174.507539
18865 1 1 0.0 12.045036 37.902040 177.285640
18866 1 1 0.0 13.135867 39.522750 179.601477
18867 1 1 0.0 20.011485 34.974795 180.641211
18868 1 1 0.0 17.262909 38.347431 179.519913
18869 1 2 0.0 9.920256 37.948575 176.770201
18870 1 2 0.0 16.500223 39.250519 177.654860
18871 1 2 0.0 13.489139 36.456752 178.592891
18872 1 2 0.0 18.304783 36.647829 179.731557
18873 1 2 0.0 18.712155 38.606591 180.682110
18874 1 2 0.0 12.622737 38.105309 175.684232
18875 1 2 0.0 15.444830 38.764951 180.069712
18876 1 2 0.0 12.126373 39.080490 178.088896
18877 1 1 0.0 13.199645 33.219393 177.008335
18878 1 1 0.0 14.233058 34.797173 179.143110
18879 1 1 0.0 20.383689 30.239145 180.371633
18880 1 1 0.0 18.110197 33.640885 179.050045
18881 1 2 0.0 11.223885 33.279625 176.523581
18882 1 2 0.0 17.566108 34.614714 177.143781
18883 1 2 0.0 14.384002 31.714871 178.392391
18884 1 2 0.0 18.942409 31.926195 179.382795
18885 1 2 0.0 19.478859 33.882666 180.122465
18886 1 2 0.0 13.849189 33.484405 175.403690
18887 1 2 0.0 16.358668 34.028439 179.612923
18888 1 2 0.0 13.323527 34.394252 177.701541
18889 1 1 0.0 13.957772 28.465055 177.099785
18890 1 1 0.0 14.931402 30.021592 179.052635
18891 1 1 0.0 20.311604 25.496213 180.508735
18892 1 1 0.0 18.515785 28.903124 178.985440
18893 1 2 0.0 12.150737 28.527740 176.630050
18894 1 2 0.0 18.173762 29.929073 177.054560
18895 1 2 0.0 14.885170 26.917065 178.555829
18896 1 2 0.0 19.139309 27.180665 179.437989
18897 1 2 0.0 19.793955 29.143934 179.976364
18898 1 2 0.0 14.655939 28.780487 175.514711
18899 1 2 0.0 16.856084 29.255630 179.538698
18900 1 2 0.0 14.122917 29.642804 177.683089
18901 1 1 0.0 14.312919 23.637852 177.566032
18902 1 1 0.0 15.237380 25.196820 179.324074
18903 1 1 0.0 19.785310 20.745837 181.061596
18904 1 1 0.0 18.484319 24.134477 179.321836
18905 1 2 0.0 12.693297 23.691266 177.096654
18906 1 2 0.0 18.329584 25.194292 177.381306
18907 1 2 0.0 14.980887 22.061664 179.094071
18908 1 2 0.0 18.891513 22.411024 179.900778
18909 1 2 0.0 19.668019 24.390741 180.234125
18910 1 2 0.0 15.035118 23.991997 176.024638
18911 1 2 0.0 16.942411 24.446991 179.842137
18912 1 2 0.0 14.525856 24.826361 178.032324
18913 1 1 0.0 8.205973 37.361201 180.831255
18914 1 1 0.0 9.329875 39.253583 183.088406
18915 1 1 0.0 16.126296 35.069690 184.195133
18916 1 1 0.0 13.433807 38.299392 183.018784
18917 1 2 0.0 6.101924 37.248426 180.320884
18918 1 2 0.0 12.681404 39.076879 181.146634
18919 1 2 0.0 9.616739 36.032906 182.156340
18920 1 2 0.0 14.438835 36.622034 183.265860
18921 1 2 0.0 14.913409 38.734144 184.153126
18922 1 2 0.0 8.788030 37.507932 179.233237
18923 1 2 0.0 11.623118 38.643283 183.563898
18924 1 2 0.0 8.308652 38.642402 181.601808
18925 1 1 0.0 9.319932 32.548637 180.611717
18926 1 1 0.0 10.336254 34.397837 182.727326
18927 1 1 0.0 16.445172 30.196711 183.976416
18928 1 1 0.0 14.192245 33.452659 182.639077
18929 1 2 0.0 7.372945 32.455119 180.127877
18930 1 2 0.0 13.659852 34.290685 180.729992
18931 1 2 0.0 10.482641 31.166761 181.998078
18932 1 2 0.0 15.011234 31.761951 182.983568
18933 1 2 0.0 15.568465 33.871194 183.699778
18934 1 2 0.0 9.980749 32.747817 179.007703
18935 1 2 0.0 12.446501 33.774332 183.200107
18936 1 2 0.0 9.437488 33.823856 181.295747
18937 1 1 0.0 10.120002 27.679316 180.684116
18938 1 1 0.0 11.028440 29.502700 182.656055
18939 1 1 0.0 16.403582 25.317825 184.087651
18940 1 1 0.0 14.593738 28.580701 182.586869
18941 1 2 0.0 8.349096 27.596908 180.211201
18942 1 2 0.0 14.264740 29.463864 180.657258
18943 1 2 0.0 11.037784 26.256471 182.127086
18944 1 2 0.0 15.226904 26.882526 183.028242
18945 1 2 0.0 15.857691 28.996248 183.581427
18946 1 2 0.0 10.836061 27.920966 179.096955
18947 1 2 0.0 12.938243 28.876473 183.140993
18948 1 2 0.0 10.252038 28.953786 181.281167
18949 1 1 0.0 10.601041 22.752309 181.053236
18950 1 1 0.0 11.411539 24.568813 182.869882
18951 1 1 0.0 15.993476 20.432899 184.536207
18952 1 1 0.0 14.642042 23.683781 182.858715
18953 1 2 0.0 9.024496 22.672496 180.576370
18954 1 2 0.0 14.501286 24.596984 180.923628
18955 1 2 0.0 11.272890 21.300720 182.551941
18956 1 2 0.0 15.082631 21.983586 183.402830
18957 1 2 0.0 15.789653 24.109589 183.790229
18958 1 2 0.0 11.347638 23.026126 179.506897
18959 1 2 0.0 13.102590 23.950079 183.382655
18960 1 2 0.0 10.753339 24.032361 181.557108
18961 1 1 0.0 4.373591 36.783419 184.376869
18962 1 1 0.0 5.530382 38.932571 186.575336
18963 1 1 0.0 12.241699 35.128483 187.749056
18964 1 1 0.0 9.608322 38.200177 186.517656
18965 1 2 0.0 2.291223 36.513614 183.871567
18966 1 2 0.0 8.868397 38.849798 184.638408
18967 1 2 0.0 5.748758 35.577951 185.719789
18968 1 2 0.0 10.575169 36.554135 186.800163
18969 1 2 0.0 11.116554 38.804013 187.624142
18970 1 2 0.0 4.960546 36.874039 182.782242
18971 1 2 0.0 7.805861 38.470492 187.058084
18972 1 2 0.0 4.498443 38.158496 185.114720
18973 1 1 0.0 5.441560 31.870469 184.215099
18974 1 1 0.0 6.442237 33.976264 186.311543
18975 1 1 0.0 12.506738 30.149242 187.581199
18976 1 1 0.0 10.275734 33.244047 186.228109
18977 1 2 0.0 3.523264 31.624896 183.732173
18978 1 2 0.0 9.756019 33.944367 184.316204
18979 1 2 0.0 6.581493 30.617151 185.603765
18980 1 2 0.0 11.080667 31.586506 186.584340
18981 1 2 0.0 11.658948 33.833009 187.277091
18982 1 2 0.0 6.113590 32.004755 182.611716
18983 1 2 0.0 8.536166 33.499217 186.787291
18984 1 2 0.0 5.554116 33.237190 184.889952
18985 1 1 0.0 6.278234 26.915696 184.268447
18986 1 1 0.0 7.124554 28.991181 186.259474
18987 1 1 0.0 12.495133 25.165468 187.666568
18988 1 1 0.0 10.670957 28.268681 186.188297
18989 1 2 0.0 4.542343 26.689301 183.792351
18990 1 2 0.0 10.354755 29.007518 184.259956
18991 1 2 0.0 7.186405 25.623988 185.698342
18992 1 2 0.0 11.313431 26.604090 186.618496
18993 1 2 0.0 11.921288 28.852823 187.186490
18994 1 2 0.0 7.011521 27.085012 182.679200
18995 1 2 0.0 9.019609 28.506424 186.743289
18996 1 2 0.0 6.378982 28.278045 184.879245
18997 1 1 0.0 6.879824 21.918415 184.540440
18998 1 1 0.0 7.581063 23.977787 186.415689
18999 1 1 0.0 12.200707 20.177058 188.010817
19000 1 1 0.0 10.796853 23.274282 186.395595
19001 1 2 0.0 5.344212 21.705895 184.056085
19002 1 2 0.0 10.668637 24.039688 184.465949
19003 1 2 0.0 7.556693 20.597497 186.009810
19004 1 2 0.0 11.271006 21.606753 186.904882
19005 1 2 0.0 11.910132 23.863670 187.346334
19006 1 2 0.0 7.649555 22.113862 182.989156
19007 1 2 0.0 9.259351 23.492390 186.923174
19008 1 2 0.0 6.973800 23.281185 185.081893
19009 1 1 0.0 0.547531 36.170669 187.922484
19010 1 1 0.0 1.737052 38.562403 190.062265
19011 1 1 0.0 8.357657 35.153429 191.302978
19012 1 1 0.0 5.786234 38.052897 190.016528
19013 1 2 0.0 -1.512230 35.745871 187.422251
19014 1 2 0.0 5.060826 38.572729 188.130182
19015 1 2 0.0 1.884965 35.093519 189.283238
19016 1 2 0.0 6.713646 36.446723 190.334466
19017 1 2 0.0 7.321474 38.819765 191.095157
19018 1 2 0.0 1.139859 36.205780 186.331247
19019 1 2 0.0 3.992814 38.249411 190.552270
19020 1 2 0.0 0.695348 37.631192 188.627632
19021 1 1 0.0 1.564456 31.185284 187.818480
19022 1 1 0.0 2.550864 33.533609 189.895760
19023 1 1 0.0 8.568382 30.097052 191.185981
19024 1 1 0.0 6.360576 33.016288 189.817141
19025 1 2 0.0 -0.325222 30.789239 187.336469
19026 1 2 0.0 5.854454 33.577200 187.902415
19027 1 2 0.0 2.680547 30.066120 189.209452
19028 1 2 0.0 7.150669 31.400550 190.185113
19029 1 2 0.0 7.750252 33.769765 190.854404
19030 1 2 0.0 2.247637 31.255600 186.215729
19031 1 2 0.0 4.627561 33.204259 190.374475
19032 1 2 0.0 1.673271 32.635112 188.484157
19033 1 1 0.0 2.432679 26.173012 187.852779
19034 1 1 0.0 3.219792 28.486652 189.862894
19035 1 1 0.0 8.586285 25.037515 191.245484
19036 1 1 0.0 6.747484 27.966433 189.789726
19037 1 2 0.0 0.730733 25.803760 187.373502
19038 1 2 0.0 6.443867 28.559460 187.862653
19039 1 2 0.0 3.331243 25.018140 189.269599
19040 1 2 0.0 7.398956 26.344144 190.208749
19041 1 2 0.0 7.984753 28.713395 190.791553
19042 1 2 0.0 3.182595 26.271237 186.261444
19043 1 2 0.0 5.100225 28.144979 190.345584
19044 1 2 0.0 2.503864 27.614879 188.477323
19045 1 1 0.0 3.149766 21.133412 188.027644
19046 1 1 0.0 3.746191 23.421825 189.961496
19047 1 1 0.0 8.407060 19.974746 191.485427
19048 1 1 0.0 6.948930 22.903471 189.932475
19049 1 2 0.0 1.653019 20.788859 187.535801
19050 1 2 0.0 6.831918 23.519821 188.008270
19051 1 2 0.0 3.832727 19.948965 189.467680
19052 1 2 0.0 7.456806 21.277413 190.406933
19053 1 2 0.0 8.029527 23.650805 190.902439
19054 1 2 0.0 3.941492 21.252051 186.471415
19055 1 2 0.0 5.412881 23.071752 190.463692
19056 1 2 0.0 3.187612 22.570573 188.606678
19057 1 1 0.0 -3.272435 35.524223 191.468098
19058 1 1 0.0 -2.050331 38.144798 193.549194
19059 1 1 0.0 4.474144 35.146045 194.856901
19060 1 1 0.0 1.967395 37.859635 193.515400
19061 1 2 0.0 -5.308675 34.946288 190.972934
19062 1 2 0.0 1.258439 38.248005 191.621956
19063 1 2 0.0 -1.974791 34.580658 192.846688
19064 1 2 0.0 2.854171 36.301532 193.868769
19065 1 2 0.0 3.528090 38.783790 194.566173
19066 1 2 0.0 -2.674312 35.504575 189.880252
19067 1 2 0.0 0.183814 37.981888 194.046457
19068 1 2 0.0 -3.100886 37.062046 192.140544
19069 1 1 0.0 -2.311426 30.493339 191.421862
19070 1 1 0.0 -1.337958 33.070609 193.479976
19071 1 1 0.0 4.630099 30.040352 194.790764
19072 1 1 0.0 2.446713 32.770212 193.406173
19073 1 2 0.0 -4.172551 29.948330 190.940765
19074 1 2 0.0 1.955051 33.190155 191.488627
19075 1 2 0.0 -1.220205 29.513719 192.815138
19076 1 2 0.0 3.221216 31.204544 193.785885
19077 1 2 0.0 3.842341 33.682568 194.431717
19078 1 2 0.0 -1.617162 30.500603 189.819742
19079 1 2 0.0 0.720619 32.890217 193.961659
19080 1 2 0.0 -2.205138 32.018177 192.078363
19081 1 1 0.0 -1.416523 25.450502 191.437110
19082 1 1 0.0 -0.685816 27.988869 193.466314
19083 1 1 0.0 4.677054 24.932872 194.824400
19084 1 1 0.0 2.823351 27.673533 193.391154
19085 1 2 0.0 -3.085573 24.939554 190.954652
19086 1 2 0.0 2.532121 28.119305 191.465351
19087 1 2 0.0 -0.527569 24.437980 192.840856
19088 1 2 0.0 3.483522 26.101877 193.799002
19089 1 2 0.0 4.048094 28.577788 194.396616
19090 1 2 0.0 -0.650537 25.478724 189.843688
19091 1 2 0.0 1.180120 27.791807 193.947880
19092 1 2 0.0 -1.373241 26.963839 192.075400
19093 1 1 0.0 -0.588809 20.395516 191.514848
19094 1 1 0.0 -0.092924 22.899700 193.507304
19095 1 1 0.0 4.612574 19.823566 194.960037
19096 1 1 0.0 3.098391 22.569674 193.469354
19097 1 2 0.0 -2.048723 19.919743 191.015516
19098 1 2 0.0 2.991317 23.035635 191.550592
19099 1 2 0.0 0.101269 19.353179 192.925550
19100 1 2 0.0 3.640144 20.993481 193.908985
19101 1 2 0.0 4.147887 23.469534 194.458543
19102 1 2 0.0 0.223864 20.438605 189.953675
19103 1 2 0.0 1.563307 22.686746 194.004210
19104 1 2 0.0 -0.604987 21.899068 192.131463
19105 1 1 0.0 -7.086434 34.844769 195.013712
19106 1 1 0.0 -5.831879 37.680657 197.036123
19107 1 1 0.0 0.591147 35.107247 198.410824
19108 1 1 0.0 -1.848281 37.621626 197.014271
19109 1 2 0.0 -9.098232 34.115414 194.523617
19110 1 2 0.0 -2.538922 37.877060 195.113730
19111 1 2 0.0 -5.830586 34.039923 196.410137
19112 1 2 0.0 -1.003311 36.119598 197.403072
19113 1 2 0.0 -0.263646 38.697525 198.037189
19114 1 2 0.0 -6.482130 34.771254 193.429257
19115 1 2 0.0 -3.621227 37.668951 197.540643
19116 1 2 0.0 -6.890398 36.451888 195.653456
19117 1 1 0.0 -6.186110 29.794772 195.025244
19118 1 1 0.0 -5.224279 32.587649 197.064193
19119 1 1 0.0 0.691888 29.979270 198.395546
19120 1 1 0.0 -1.465891 32.506311 196.995205
19121 1 2 0.0 -8.018744 29.102258 194.545061
19122 1 2 0.0 -1.942256 32.783833 195.074838
19123 1 2 0.0 -5.120766 28.959974 196.420825
19124 1 2 0.0 -0.707707 30.998763 197.386658
19125 1 2 0.0 -0.064805 33.572082 198.009030
19126 1 2 0.0 -5.480834 29.739911 193.423755
19127 1 2 0.0 -3.184697 32.557513 197.548843
19128 1 2 0.0 -6.081159 31.386677 195.672568
19129 1 1 0.0 -5.269299 24.747756 195.021441
19130 1 1 0.0 -4.592253 27.497703 197.069734
19131 1 1 0.0 0.767452 24.850882 198.403316
19132 1 1 0.0 -1.101425 27.389730 196.992583
19133 1 2 0.0 -6.906495 24.096314 194.535803
19134 1 2 0.0 -1.380460 27.686815 195.068049
19135 1 2 0.0 -4.389958 23.883006 196.412112
19136 1 2 0.0 -0.432845 25.876804 197.389256
19137 1 2 0.0 0.111312 28.445895 198.001679
19138 1 2 0.0 -4.487769 24.706939 193.425933
19139 1 2 0.0 -2.740691 27.446726 197.550175
19140 1 2 0.0 -5.252295 26.324684 195.673478
19141 1 1 0.0 -4.335729 19.703770 195.002052
19142 1 1 0.0 -3.936200 22.410770 197.053111
19143 1 1 0.0 0.817275 19.722071 198.434647
19144 1 1 0.0 -0.754694 22.271896 197.006234
19145 1 2 0.0 -5.760832 19.097724 194.495232
19146 1 2 0.0 -0.853046 22.586056 195.092913
19147 1 2 0.0 -3.637536 18.809109 196.383420
19148 1 2 0.0 -0.178912 20.753710 197.411037
19149 1 2 0.0 0.265239 23.318980 198.014648
19150 1 2 0.0 -3.503091 19.672309 193.435934
19151 1 2 0.0 -2.289305 22.336582 197.544728
19152 1 2 0.0 -4.403871 21.265898 195.656247
19153 1 1 0.0 -10.894492 34.132462 198.559327
19154 1 1 0.0 -9.607613 37.170132 0.523053
19155 1 1 0.0 -3.291342 35.037426 1.964746
19156 1 1 0.0 -5.660830 37.339368 0.513143
19157 1 2 0.0 -12.880912 33.253298 198.074300
19158 1 2 0.0 -6.331328 37.460554 198.605504
19159 1 2 0.0 -9.682437 33.471422 199.973586
19160 1 2 0.0 -4.858825 35.901351 0.937375
19161 1 2 0.0 -4.053752 38.561570 1.508204
19162 1 2 0.0 -10.283655 34.006118 196.978263
19163 1 2 0.0 -7.422335 37.310892 1.034829
19164 1 2 0.0 -10.673213 35.800886 199.166368
19165 1 1 0.0 -10.059602 29.089613 198.628626
19166 1 1 0.0 -9.108105 32.084796 0.648410
19167 1 1 0.0 -3.246252 29.913862 2.000329
19168 1 1 0.0 -5.377249 32.224784 0.584237
19169 1 2 0.0 -11.863802 28.251033 198.149357
19170 1 2 0.0 -5.837496 32.358508 198.661050
19171 1 2 0.0 -9.021136 28.404891 0.026512
19172 1 2 0.0 -4.636106 30.783322 0.987430
19173 1 2 0.0 -3.971198 33.438587 1.586343
19174 1 2 0.0 -9.343390 28.973578 197.027768
19175 1 2 0.0 -7.088396 32.206267 1.136027
19176 1 2 0.0 -9.954803 30.740674 199.266773
19177 1 1 0.0 -9.125631 24.064680 198.605772
19178 1 1 0.0 -8.499518 27.013134 0.673153
19179 1 1 0.0 -3.142517 24.791258 1.982232
19180 1 1 0.0 -5.026836 27.114923 0.594012
19181 1 2 0.0 -10.732024 23.274008 198.116954
19182 1 2 0.0 -5.293862 27.261879 198.670746
19183 1 2 0.0 -8.255911 23.353121 199.983369
19184 1 2 0.0 -4.350132 25.668723 0.979509
19185 1 2 0.0 -3.825590 28.317671 1.606742
19186 1 2 0.0 -8.329062 23.955687 197.008177
19187 1 2 0.0 -6.662202 27.109684 1.152471
19188 1 2 0.0 -9.133290 25.697364 199.271556
19189 1 1 0.0 -8.090955 19.057956 198.489256
19190 1 1 0.0 -7.783624 21.954926 0.598918
19191 1 1 0.0 -2.978828 19.669637 1.909257
19192 1 1 0.0 -4.610295 22.009736 0.543113
19193 1 2 0.0 -9.483291 18.322727 197.974948
19194 1 2 0.0 -4.701120 22.170591 198.635234
19195 1 2 0.0 -7.383659 18.316555 199.841290
19196 1 2 0.0 -4.000335 20.557585 0.913089
19197 1 2 0.0 -3.618404 23.198775 1.570753
19198 1 2 0.0 -7.239284 18.952720 196.918193
19199 1 2 0.0 -6.144935 22.021038 1.085246
19200 1 2 0.0 -8.209014 20.670902 199.181032
19201 1 1 0.0 -14.696543 33.386937 2.104941
19202 1 1 0.0 -13.377459 36.612646 4.009982
19203 1 1 0.0 -7.173321 34.936487 5.518669
19204 1 1 0.0 -9.470238 37.012661 4.012015
19205 1 2 0.0 -16.656617 32.359493 1.624983
19206 1 2 0.0 -10.118772 36.998424 2.097278
19207 1 2 0.0 -13.530298 32.874825 3.537035
19208 1 2 0.0 -8.712362 35.646646 4.471679
19209 1 2 0.0 -7.842222 38.375742 4.979220
19210 1 2 0.0 -14.078848 33.208966 0.527268
19211 1 2 0.0 -11.219474 36.907293 4.529015
19212 1 2 0.0 -14.449254 35.108567 2.679280
19213 1 1 0.0 -13.931889 28.377789 2.232008
19214 1 1 0.0 -12.989406 31.561801 4.232626
19215 1 1 0.0 -7.184320 29.844112 5.605112
19216 1 1 0.0 -9.287356 31.925550 4.173268
19217 1 2 0.0 -15.707709 27.394579 1.753653
19218 1 2 0.0 -9.730666 31.914154 2.247261
19219 1 2 0.0 -12.921314 27.848453 3.632198
19220 1 2 0.0 -8.563979 30.558183 4.588203
19221 1 2 0.0 -7.876833 33.281997 5.163656
19222 1 2 0.0 -13.204823 28.201569 0.631781
19223 1 2 0.0 -10.990464 31.836308 4.723211
19224 1 2 0.0 -13.826041 30.079998 2.860979
19225 1 1 0.0 -12.985560 23.401491 2.190104
19226 1 1 0.0 -12.407620 26.535243 4.276573
19227 1 1 0.0 -7.052853 24.754072 5.561148
19228 1 1 0.0 -8.952887 26.849153 4.195440
19229 1 2 0.0 -14.562227 22.472935 1.698104
19230 1 2 0.0 -9.208086 26.844510 2.273444
19231 1 2 0.0 -12.125470 22.848624 3.554626
19232 1 2 0.0 -8.268345 25.477703 4.569762
19233 1 2 0.0 -7.762613 28.193132 5.211805
19234 1 2 0.0 -12.174442 23.225098 0.590421
19235 1 2 0.0 -10.584420 26.780755 4.754766
19236 1 2 0.0 -13.016247 25.082018 2.869634
19237 1 1 0.0 -11.854577 18.458581 1.976460
19238 1 1 0.0 -11.635248 21.532580 4.144726
19239 1 1 0.0 -6.775739 19.666419 5.383867
19240 1 1 0.0 -8.468425 21.783355 4.079993
19241 1 2 0.0 -13.216248 17.595424 1.454663
19242 1 2 0.0 -8.552910 21.789286 2.177556
19243 1 2 0.0 -11.137187 17.876132 3.299159
19244 1 2 0.0 -7.824134 20.405279 4.415140
19245 1 2 0.0 -7.503046 23.109032 5.126858
19246 1 2 0.0 -10.984774 18.280133 0.400452
19247 1 2 0.0 -10.003610 21.740434 4.625764
19248 1 2 0.0 -12.020488 20.114525 2.705817
19249 1 1 0.0 -18.492424 32.607285 5.650555
19250 1 1 0.0 -17.141247 36.006839 7.496911
19251 1 1 0.0 -11.054781 34.803833 9.072591
19252 1 1 0.0 -13.276440 36.640588 7.510887
19253 1 2 0.0 -20.425131 31.433022 5.175667
19254 1 2 0.0 -13.901168 36.489879 5.589052
19255 1 2 0.0 -17.374054 32.249335 7.100484
19256 1 2 0.0 -12.563883 35.354755 8.005982
19257 1 2 0.0 -11.629026 38.139058 8.450236
19258 1 2 0.0 -17.867566 32.379079 4.076273
19259 1 2 0.0 -15.012541 36.456989 8.023201
19260 1 2 0.0 -18.218332 34.373771 6.192192
19261 1 1 0.0 -17.802938 27.659118 5.835389
19262 1 1 0.0 -16.868109 31.018081 7.816843
19263 1 1 0.0 -11.122317 29.769939 9.209894
19264 1 1 0.0 -13.196185 31.608246 7.762300
19265 1 2 0.0 -19.550431 26.532737 5.357949
19266 1 2 0.0 -13.621731 31.450441 5.833472
19267 1 2 0.0 -16.821294 27.290622 7.237885
19268 1 2 0.0 -12.491316 30.323151 8.188975
19269 1 2 0.0 -11.781696 33.101857 8.740969
19270 1 2 0.0 -17.065109 27.423755 4.235794
19271 1 2 0.0 -14.890859 31.447157 8.310395
19272 1 2 0.0 -17.694806 29.404239 6.455184
19273 1 1 0.0 -16.849183 22.758736 5.774435
19274 1 1 0.0 -16.316583 26.064224 7.879993
19275 1 1 0.0 -10.963564 24.739753 9.140065
19276 1 1 0.0 -12.879589 26.592605 7.796869
19277 1 2 0.0 -18.397248 21.693750 5.279255
19278 1 2 0.0 -13.123148 26.434836 5.876142
19279 1 2 0.0 -15.998739 22.370234 7.125883
19280 1 2 0.0 -12.187501 25.304085 8.160015
19281 1 2 0.0 -11.699759 28.072348 8.816868
19282 1 2 0.0 -16.024001 22.515634 4.172665
19283 1 2 0.0 -14.507364 26.460146 8.357062
19284 1 2 0.0 -16.901222 24.478980 6.467712
19285 1 1 0.0 -15.626827 17.906921 5.463664
19286 1 1 0.0 -15.491193 21.144701 7.690533
19287 1 1 0.0 -10.573471 19.713360 8.858478
19288 1 1 0.0 -12.329136 21.593492 7.616872
19289 1 2 0.0 -16.960027 16.917285 4.934379
19290 1 2 0.0 -12.408478 21.442733 5.719877
19291 1 2 0.0 -14.898330 17.489316 6.757029
19292 1 2 0.0 -11.650356 20.297670 7.917192
19293 1 2 0.0 -11.388706 23.050352 8.682962
19294 1 2 0.0 -14.739768 17.655602 3.882712
19295 1 2 0.0 -13.865408 21.495663 8.166282
19296 1 2 0.0 -15.838470 19.597849 6.230602
19297 1 1 0.0 -22.281856 31.791968 9.196170
19298 1 1 0.0 -20.898694 35.350456 10.983841
19299 1 1 0.0 -14.935701 34.638322 12.626514
19300 1 1 0.0 -17.079316 36.221445 11.009758
19301 1 2 0.0 -24.186105 30.472293 8.726350
19302 1 2 0.0 -17.678344 35.933338 9.080826
19303 1 2 0.0 -21.213516 31.593622 10.663934
19304 1 2 0.0 -16.413314 35.024301 11.540285
19305 1 2 0.0 -15.414100 37.849654 11.921251
19306 1 2 0.0 -21.649553 31.515163 7.625278
19307 1 2 0.0 -18.801363 35.957972 11.517387
19308 1 2 0.0 -21.980128 33.594559 9.705104
19309 1 1 0.0 -21.672693 26.933292 9.438771
19310 1 1 0.0 -20.744092 30.452669 11.401060
19311 1 1 0.0 -15.060238 29.691183 12.814677
19312 1 1 0.0 -17.103690 31.272190 11.351332
19313 1 2 0.0 -23.391908 25.665243 8.962245
19314 1 2 0.0 -17.510619 30.966709 9.419684
19315 1 2 0.0 -20.721068 26.731334 10.843572
19316 1 2 0.0 -16.418096 30.077860 11.789748
19317 1 2 0.0 -15.685759 32.897304 12.318282
19318 1 2 0.0 -20.924200 26.639907 7.839807
19319 1 2 0.0 -18.789510 31.037990 11.897579
19320 1 2 0.0 -21.560986 28.712707 10.049389
19321 1 1 0.0 -20.716667 22.137334 9.358766
19322 1 1 0.0 -20.226448 25.600397 11.483413
19323 1 1 0.0 -14.874664 24.749126 12.718981
19324 1 1 0.0 -16.806967 26.345627 11.398297
19325 1 2 0.0 -22.237322 20.937520 8.860405
19326 1 2 0.0 -17.039075 26.033123 9.478840
19327 1 2 0.0 -19.875886 21.919153 10.697139
19328 1 2 0.0 -16.107636 25.148512 11.750269
19329 1 2 0.0 -15.637032 27.955459 12.421931
19330 1 2 0.0 -19.877903 21.828133 7.754910
19331 1 2 0.0 -18.431064 26.148217 11.959357
19332 1 2 0.0 -20.788308 23.888814 10.065790
19333 1 1 0.0 -19.408093 17.405123 8.950868
19334 1 1 0.0 -19.351661 20.792899 11.236341
19335 1 1 0.0 -14.372055 19.812265 12.333088
19336 1 1 0.0 -16.192525 21.441517 11.153752
19337 1 2 0.0 -20.715156 16.290708 8.414094
19338 1 2 0.0 -16.267955 21.132117 9.262198
19339 1 2 0.0 -18.667438 17.158574 10.214899
19340 1 2 0.0 -15.479091 20.236409 11.419244
19341 1 2 0.0 -15.275422 23.023873 12.239067
19342 1 2 0.0 -18.504645 17.081029 7.364971
19343 1 2 0.0 -17.730464 21.288267 11.706800
19344 1 2 0.0 -19.663259 19.122689 9.755386
19345 1 1 0.0 -26.064423 30.938684 12.741784
19346 1 1 0.0 -24.649379 34.640139 14.470770
19347 1 1 0.0 -18.816054 34.438163 16.180436
19348 1 1 0.0 -20.878678 35.752585 14.508630
19349 1 2 0.0 -27.939019 29.474950 12.277033
19350 1 2 0.0 -21.450026 35.326288 12.572600
19351 1 2 0.0 -25.048404 30.905702 14.227383
19352 1 2 0.0 -20.260537 34.653143 15.074588
19353 1 2 0.0 -19.197351 37.504619 15.392267
19354 1 2 0.0 -25.424416 30.615228 11.174283
19355 1 2 0.0 -22.585675 35.407212 15.011573
19356 1 2 0.0 -25.734168 32.768031 13.218017
19357 1 1 0.0 -25.541071 26.199847 13.042153
19358 1 1 0.0 -24.617175 29.864125 14.985276
19359 1 1 0.0 -18.998080 29.607593 16.419459
19360 1 1 0.0 -21.009795 30.916330 14.940364
19361 1 2 0.0 -27.232056 24.791708 12.566541
19362 1 2 0.0 -21.397216 30.461910 13.005895
19363 1 2 0.0 -24.620620 26.170494 14.449259
19364 1 2 0.0 -20.344290 29.821742 15.390520
19365 1 2 0.0 -19.588977 32.666990 15.895595
19366 1 2 0.0 -24.782029 25.849674 11.443820
19367 1 2 0.0 -22.686308 30.607559 15.484763
19368 1 2 0.0 -25.424411 28.004373 13.643595
19369 1 1 0.0 -24.588262 21.538664 12.943097
19370 1 1 0.0 -24.137274 25.144240 15.086832
19371 1 1 0.0 -18.786172 24.783480 16.297897
19372 1 1 0.0 -20.735060 26.108756 14.999726
19373 1 2 0.0 -26.082796 20.205823 12.441556
19374 1 2 0.0 -20.955914 25.639784 13.081537
19375 1 2 0.0 -23.757167 21.497173 14.268396
19376 1 2 0.0 -20.028803 25.011986 15.340522
19377 1 2 0.0 -19.574440 27.842678 16.026994
19378 1 2 0.0 -23.736404 21.163877 11.337154
19379 1 2 0.0 -22.355568 25.845505 15.561653
19380 1 2 0.0 -24.677641 23.312359 13.663867
19381 1 1 0.0 -23.198957 16.956406 12.438072
19382 1 1 0.0 -23.216952 20.479569 14.782148
19383 1 1 0.0 -18.171537 19.965968 15.807698
19384 1 1 0.0 -20.058741 21.329563 14.690631
19385 1 2 0.0 -24.482414 15.719238 11.893810
19386 1 2 0.0 -20.131545 20.859319 12.804520
19387 1 2 0.0 -22.445035 16.887588 13.672769
19388 1 2 0.0 -19.310479 20.224072 14.921295
19389 1 2 0.0 -19.163253 23.031372 15.795172
19390 1 2 0.0 -22.279980 16.559333 10.847230
19391 1 2 0.0 -21.598980 21.120570 15.247319
19392 1 2 0.0 -23.495297 18.691753 13.280171
19393 1 1 0.0 -29.839527 30.044130 16.287398
19394 1 1 0.0 -28.392700 33.871075 17.957699
19395 1 1 0.0 -22.695797 34.200746 19.734359
19396 1 1 0.0 -24.674254 35.230161 18.007502
19397 1 2 0.0 -31.683132 28.437623 15.827716
19398 1 2 0.0 -25.215816 34.665049 16.064374
19399 1 2 0.0 -28.878313 30.182731 17.790832
19400 1 2 0.0 -24.105385 34.238167 18.608891
19401 1 2 0.0 -22.978638 37.099720 18.863283
19402 1 2 0.0 -29.191586 29.676397 14.723288
19403 1 2 0.0 -26.365096 34.800343 18.505759
19404 1 2 0.0 -29.479768 31.890027 16.730929
19405 1 1 0.0 -29.407952 25.458123 16.645535
19406 1 1 0.0 -28.487099 29.250385 18.569493
19407 1 1 0.0 -22.935836 29.518807 20.024242
19408 1 1 0.0 -24.914392 30.539132 18.529396
19409 1 2 0.0 -31.070752 23.911577 16.170837
19410 1 2 0.0 -25.281355 29.934511 16.592107
19411 1 2 0.0 -28.519933 25.607964 18.054945
19412 1 2 0.0 -24.269851 29.553966 18.991293
19413 1 2 0.0 -23.491286 32.408954 19.472909
19414 1 2 0.0 -28.638494 25.052543 15.047833
19415 1 2 0.0 -26.581095 30.154072 19.071947
19416 1 2 0.0 -29.284839 27.277759 17.237800
19417 1 1 0.0 -28.464324 20.964704 16.527428
19418 1 1 0.0 -28.049148 24.696437 18.690252
19419 1 1 0.0 -22.698122 24.844699 19.876813
19420 1 1 0.0 -24.663922 25.882775 18.601155
19421 1 2 0.0 -29.934167 19.500918 16.022707
19422 1 2 0.0 -24.873729 25.255431 16.684235
19423 1 2 0.0 -27.642948 21.106866 17.839653
19424 1 2 0.0 -23.951082 24.895965 18.930775
19425 1 2 0.0 -23.511994 27.734319 19.632057
19426 1 2 0.0 -27.599870 20.524724 14.919398
19427 1 2 0.0 -26.280942 25.552790 19.163949
19428 1 2 0.0 -28.569419 22.750820 17.261945
19429 1 1 0.0 -27.000255 16.565390 15.925276
19430 1 1 0.0 -27.087497 20.208144 18.327955
19431 1 1 0.0 -21.971985 20.178595 19.282308
19432 1 1 0.0 -23.928005 21.260725 18.227511
19433 1 2 0.0 -28.262919 15.207946 15.373526
19434 1 2 0.0 -23.999548 20.627093 16.346841
19435 1 2 0.0 -26.231871 16.681637 17.130638
19436 1 2 0.0 -23.144722 20.264401 18.423347
19437 1 2 0.0 -23.052282 23.075436 19.351277
19438 1 2 0.0 -26.066610 16.094741 14.329489
19439 1 2 0.0 -25.471248 20.995921 18.787837
19440 1 2 0.0 -27.335224 18.308931 16.804956
19441 1 1 0.0 -33.606318 29.103599 19.833013
19442 1 1 0.0 -32.127796 33.036409 21.444628
19443 1 1 0.0 -26.574867 33.922352 23.288281
19444 1 1 0.0 -28.465658 34.648698 21.506374
19445 1 2 0.0 -35.417387 27.355509 19.378399
19446 1 2 0.0 -28.975141 33.944373 19.556148
19447 1 2 0.0 -32.702666 29.420655 21.354281
19448 1 2 0.0 -27.947616 33.774933 22.143194
19449 1 2 0.0 -26.757765 36.628921 22.334299
19450 1 2 0.0 -32.950252 28.694572 18.272293
19451 1 2 0.0 -30.139086 34.131154 21.999945
19452 1 2 0.0 -33.215958 30.954625 20.243841
19453 1 1 0.0 -33.273164 24.707174 20.248916
19454 1 1 0.0 -32.353496 28.608509 22.153710
19455 1 1 0.0 -26.873500 29.424305 23.629025
19456 1 1 0.0 -28.817326 30.138416 22.118428
19457 1 2 0.0 -34.907821 23.024058 19.775133
19458 1 2 0.0 -29.162797 29.382320 20.178318
19459 1 2 0.0 -32.418978 25.043549 21.660632
19460 1 2 0.0 -28.194717 29.273353 22.592065
19461 1 2 0.0 -27.392594 32.120402 23.050222
19462 1 2 0.0 -32.493450 24.247789 18.651846
19463 1 2 0.0 -30.473651 29.674977 22.659131
19464 1 2 0.0 -33.141926 26.530762 20.832005
19465 1 1 0.0 -32.345364 20.418271 20.111760
19466 1 1 0.0 -31.962192 24.257963 22.293672
19467 1 1 0.0 -26.610555 24.935463 23.455729
19468 1 1 0.0 -28.593633 25.668797 22.202583
19469 1 2 0.0 -33.792143 18.826021 19.603857
19470 1 2 0.0 -28.792617 24.880935 20.286933
19471 1 2 0.0 -31.533747 20.751893 21.410909
19472 1 2 0.0 -27.874585 24.802527 22.521029
19473 1 2 0.0 -27.449706 27.630827 23.237120
19474 1 2 0.0 -31.468824 19.913319 18.501643
19475 1 2 0.0 -30.207285 25.271178 22.766244
19476 1 2 0.0 -32.463925 22.205915 20.860023
19477 1 1 0.0 -30.813175 16.238652 19.412480
19478 1 1 0.0 -30.963908 19.983513 21.873763
19479 1 1 0.0 -25.773495 20.456031 22.756918
19480 1 1 0.0 -27.800628 21.239411 21.764391
19481 1 2 0.0 -32.058262 14.764062 18.853241
19482 1 2 0.0 -27.872390 20.439372 19.889162
19483 1 2 0.0 -30.029012 16.548239 20.588508
19484 1 2 0.0 -26.982109 20.362733 21.925399
19485 1 2 0.0 -26.942631 23.159750 22.907381
19486 1 2 0.0 -29.865724 15.693267 17.811749
19487 1 2 0.0 -29.347684 20.919086 22.328355
19488 1 2 0.0 -31.183946 17.979757 20.329741
